 vasp.5.4.4.18Apr17-6-g9f103f2a35 (build May 10 2019 17:57:18) complex

 executed on             LinuxIFC date 2024.07.16  00:27:03

 INCAR:
 POTCAR:    PAW_PBE B 06Sep2000
 POTCAR:    PAW_PBE N 08Apr2002

   TITEL  = PAW_PBE B 06Sep2000
   POMASS =   10.811; ZVAL   =    3.000    mass and valenz
   ENMAX  =  318.614; ENMIN  =  238.960 eV

   TITEL  = PAW_PBE N 08Apr2002
   POMASS =   14.001; ZVAL   =    5.000    mass and valenz
   ENMAX  =  400.000; ENMIN  =  300.000 eV

  PAW_PBE B 06Sep2000                   :
  PAW_PBE N 08Apr2002                   :

 POSCAR: B2 N2
  positions in direct lattice
  velocities in cartesian coordinates
 exchange correlation table for  LEXCH =        8
   RHO(1)=    0.500       N(1)  =     2000
   RHO(2)=  100.500       N(2)  =     4000

 ion  position               nearest neighbor table
   1  0.000  0.000  0.000-   2 1.45   2 1.45   2 1.45
   2  0.333  0.667  0.000-   1 1.45   1 1.45   1 1.45

  LATTYP: Found a hexagonal cell.
 ALAT       =     2.5124746362
 C/A-ratio  =     2.9956358826

  Lattice vectors:

 A1 = (   1.2562373181,  -2.1758668613,   0.0000000000)
 A2 = (   1.2562373181,   2.1758668613,   0.0000000000)
 A3 = (   0.0000000000,   0.0000000000,   7.5264591742)

Analysis of symmetry for initial positions (statically):
 Subroutine PRICEL returns:
 Original cell was already a primitive cell.

 Routine SETGRP: Setting up the symmetry group for a
 hexagonal supercell.

 Subroutine GETGRP returns: Found 12 space group operations
 (whereof 12 operations were pure point group operations)
 out of a pool of 24 trial point group operations.

The static configuration has the point symmetry D_3h.

Analysis of symmetry for dynamics (positions and initial velocities):
 Subroutine PRICEL returns:
 Original cell was already a primitive cell.

 Routine SETGRP: Setting up the symmetry group for a
 hexagonal supercell.

 Subroutine GETGRP returns: Found 12 space group operations
 (whereof 12 operations were pure point group operations)
 out of a pool of 24 trial point group operations.

The dynamic configuration has the point symmetry D_3h.

 Subroutine INISYM returns: Found 12 space group operations
 (whereof 12 operations are pure point group operations),
 and found     1 'primitive' translations

 KPOINTS: A

Automatic generation of k-mesh.
Space group operators:
 irot       det(A)        alpha          n_x          n_y          n_z        tau_x        tau_y        tau_z
    1     1.000000     0.000000     1.000000     0.000000     0.000000     0.000000     0.000000     0.000000
    2    -1.000000    60.000000     0.000000     0.000000    -1.000000     0.000000     0.000000     0.000000
    3     1.000000   120.000000     0.000000     0.000000    -1.000000     0.000000     0.000000     0.000000
    4    -1.000000   180.000000     0.000000     0.000000     1.000000     0.000000     0.000000     0.000000
    5     1.000000   120.000000     0.000000     0.000000     1.000000     0.000000     0.000000     0.000000
    6    -1.000000    60.000000     0.000000     0.000000     1.000000     0.000000     0.000000     0.000000
    7    -1.000000   180.000000     0.500000    -0.866025     0.000000     0.000000     0.000000     0.000000
    8     1.000000   180.000000     0.000000     1.000000     0.000000     0.000000     0.000000     0.000000
    9    -1.000000   180.000000    -0.500000    -0.866025     0.000000     0.000000     0.000000     0.000000
   10     1.000000   180.000000     0.866025     0.500000     0.000000     0.000000     0.000000     0.000000
   11    -1.000000   180.000000     1.000000     0.000000     0.000000     0.000000     0.000000     0.000000
   12     1.000000   180.000000     0.866025    -0.500000     0.000000     0.000000     0.000000     0.000000

 Subroutine IBZKPT returns following result:

 Found     30 irreducible k-points:

 Following reciprocal coordinates:
            Coordinates               Weight
  0.000000  0.000000  0.000000      1.000000
  0.125000  0.000000  0.000000      6.000000
  0.250000  0.000000  0.000000      6.000000
  0.375000  0.000000  0.000000      6.000000
  0.500000  0.000000  0.000000      3.000000
  0.125000  0.125000  0.000000      6.000000
  0.250000  0.125000  0.000000     12.000000
  0.375000  0.125000  0.000000     12.000000
  0.250000  0.250000  0.000000      6.000000
  0.375000  0.250000  0.000000      6.000000
  0.000000  0.000000  0.250000      2.000000
  0.125000  0.000000  0.250000     12.000000
  0.250000  0.000000  0.250000     12.000000
  0.375000  0.000000  0.250000     12.000000
  0.500000  0.000000  0.250000      6.000000
  0.125000  0.125000  0.250000     12.000000
  0.250000  0.125000  0.250000     24.000000
  0.375000  0.125000  0.250000     24.000000
  0.250000  0.250000  0.250000     12.000000
  0.375000  0.250000  0.250000     12.000000
  0.000000  0.000000  0.500000      1.000000
  0.125000  0.000000  0.500000      6.000000
  0.250000  0.000000  0.500000      6.000000
  0.375000  0.000000  0.500000      6.000000
  0.500000  0.000000  0.500000      3.000000
  0.125000  0.125000  0.500000      6.000000
  0.250000  0.125000  0.500000     12.000000
  0.375000  0.125000  0.500000     12.000000
  0.250000  0.250000  0.500000      6.000000
  0.375000  0.250000  0.500000      6.000000

 Following cartesian coordinates:
            Coordinates               Weight
  0.000000  0.000000  0.000000      1.000000
  0.049752 -0.028724  0.000000      6.000000
  0.099503 -0.057448  0.000000      6.000000
  0.149255 -0.086173  0.000000      6.000000
  0.199007 -0.114897  0.000000      3.000000
  0.099503  0.000000  0.000000      6.000000
  0.149255 -0.028724  0.000000     12.000000
  0.199007 -0.057448  0.000000     12.000000
  0.199007  0.000000  0.000000      6.000000
  0.248759 -0.028724  0.000000      6.000000
  0.000000  0.000000  0.033216      2.000000
  0.049752 -0.028724  0.033216     12.000000
  0.099503 -0.057448  0.033216     12.000000
  0.149255 -0.086173  0.033216     12.000000
  0.199007 -0.114897  0.033216      6.000000
  0.099503  0.000000  0.033216     12.000000
  0.149255 -0.028724  0.033216     24.000000
  0.199007 -0.057448  0.033216     24.000000
  0.199007  0.000000  0.033216     12.000000
  0.248759 -0.028724  0.033216     12.000000
  0.000000  0.000000  0.066432      1.000000
  0.049752 -0.028724  0.066432      6.000000
  0.099503 -0.057448  0.066432      6.000000
  0.149255 -0.086173  0.066432      6.000000
  0.199007 -0.114897  0.066432      3.000000
  0.099503  0.000000  0.066432      6.000000
  0.149255 -0.028724  0.066432     12.000000
  0.199007 -0.057448  0.066432     12.000000
  0.199007  0.000000  0.066432      6.000000
  0.248759 -0.028724  0.066432      6.000000

 SYSTEM =  BiFeO3
 POSCAR =  B2 N2

 Startparameter for this run:
   NWRITE =      2    write-flag & timer
   PREC   = normal    normal or accurate (medium, high low for compatibility)
   ISTART =      0    job   : 0-new  1-cont  2-samecut
   ICHARG =      2    charge: 1-file 2-atom 10-const
   ISPIN  =      1    spin polarized calculation?
   LNONCOLLINEAR =      F non collinear calculations
   LSORBIT =      F    spin-orbit coupling
   INIWAV =      1    electr: 0-lowe 1-rand  2-diag
   LASPH  =      F    aspherical Exc in radial PAW
   METAGGA=      F    non-selfconsistent MetaGGA calc.

 Electronic Relaxation 1
   ENCUT  =  500.0 eV  36.75 Ry    6.06 a.u.   4.58  4.58 13.72*2*pi/ulx,y,z
   ENINI  =  500.0     initial cutoff
   ENAUG  =  627.1 eV  augmentation charge cutoff
   NELM   =     60;   NELMIN=  2; NELMDL= -5     # of ELM steps
   EDIFF  = 0.1E-03   stopping-criterion for ELM
   LREAL  =      F    real-space projection
   NLSPLINE    = F    spline interpolate recip. space projectors
   LCOMPAT=      F    compatible to vasp.4.4
   GGA_COMPAT  = T    GGA compatible to vasp.4.4-vasp.4.6
   LMAXPAW     = -100 max onsite density
   LMAXMIX     =    2 max onsite mixed and CHGCAR
   VOSKOWN=      0    Vosko Wilk Nusair interpolation
   ROPT   =    0.00000   0.00000
 Ionic relaxation
   EDIFFG = 0.1E-02   stopping-criterion for IOM
   NSW    =      0    number of steps for IOM
   NBLOCK =      1;   KBLOCK =      1    inner block; outer block
   IBRION =     -1    ionic relax: 0-MD 1-quasi-New 2-CG
   NFREE  =      0    steps in history (QN), initial steepest desc. (CG)
   ISIF   =      2    stress and relaxation
   IWAVPR =     10    prediction:  0-non 1-charg 2-wave 3-comb
   ISYM   =      2    0-nonsym 1-usesym 2-fastsym
   LCORR  =      T    Harris-Foulkes like correction to forces

   POTIM  = 0.5000    time-step for ionic-motion
   TEIN   =    0.0    initial temperature
   TEBEG  =    0.0;   TEEND  =   0.0 temperature during run
   SMASS  =  -3.00    Nose mass-parameter (am)
   estimated Nose-frequenzy (Omega)   =  0.10E-29 period in steps =****** mass=  -0.144E-27a.u.
   SCALEE = 1.0000    scale energy and forces
   NPACO  =    256;   APACO  = 16.0  distance and # of slots for P.C.
   PSTRESS=    0.0 pullay stress

  Mass of Ions in am
   POMASS =  10.81 14.00
  Ionic Valenz
   ZVAL   =   3.00  5.00
  Atomic Wigner-Seitz radii
  virtual crystal weights
   VCA    =   1.00  1.00
   NELECT =       8.0000    total number of electrons
   NUPDOWN=      -1.0000    fix difference up-down

 DOS related values:
   EMIN   =  10.00;   EMAX   =-10.00  energy-range for DOS
   EFERMI =   0.00
   ISMEAR =     0;   SIGMA  =   0.05  broadening in eV -4-tet -1-fermi 0-gaus

 Electronic relaxation 2 (details)
   IALGO  =     38    algorithm
   LDIAG  =      T    sub-space diagonalisation (order eigenvalues)
   LSUBROT=      F    optimize rotation matrix (better conditioning)
   TURBO    =      0    0=normal 1=particle mesh
   IRESTART =      0    0=no restart 2=restart with 2 vectors
   NREBOOT  =      0    no. of reboots
   NMIN     =      0    reboot dimension
   EREF     =   0.00    reference energy to select bands
   IMIX   =      4    mixing-type and parameters
     AMIX     =   0.40;   BMIX     =  1.00
     AMIX_MAG =   1.60;   BMIX_MAG =  1.00
     AMIN     =   0.10
     WC   =   100.;   INIMIX=   1;  MIXPRE=   1;  MAXMIX= -45

 Intra band minimization:
   WEIMIN = 0.0000     energy-eigenvalue tresh-hold
   EBREAK =  0.13E-05  absolut break condition
   DEPER  =   0.30     relativ break condition

   TIME   =   0.40     timestep for ELM

  volume/ion in A,a.u.               =      20.57       138.83
  Fermi-wavevector in a.u.,A,eV,Ry     =   0.948411  1.792237 12.238215  0.899483
  Thomas-Fermi vector in A             =   2.076597

 Write flags
   LWAVE        =      T    write WAVECAR
   LDOWNSAMPLE  =      F    k-point downsampling of WAVECAR
   LCHARG       =      T    write CHGCAR
   LVTOT        =      F    write LOCPOT, total local potential
   LVHAR        =      F    write LOCPOT, Hartree potential only
   LELF         =      F    write electronic localiz. function (ELF)
   LORBIT       =     11    0 simple, 1 ext, 2 COOP (PROOUT), +10 PAW based schemes

 Dipole corrections
   LMONO  =      F    monopole corrections only (constant potential shift)
   LDIPOL =      F    correct potential (dipole corrections)
   IDIPOL =      0    1-x, 2-y, 3-z, 4-all directions
   EPSILON=  1.0000000 bulk dielectric constant

 Exchange correlation treatment:
   GGA     =    --    GGA type
   VOSKOWN=      0    Vosko Wilk Nusair interpolation
   LHFCALC =     F    Hartree Fock is set to
   LHFONE  =     F    Hartree Fock one center treatment
   AEXX    =    0.0000 exact exchange contribution

 Linear response parameters
   LEPSILON=     F    determine dielectric tensor
   LRPA    =     F    only Hartree local field effects (RPA)
   LNABLA  =     F    use nabla operator in PAW spheres
   LVEL    =     F    velocity operator in full k-point grid
   LINTERFAST=   F  fast interpolation
   KINTER  =     0    interpolate to denser k-point grid
   CSHIFT  =0.1000    complex shift for real part using Kramers Kronig
   OMEGAMAX=  -1.0    maximum frequency
   DEG_THRESHOLD= 0.2000000E-02 threshold for treating states as degnerate
   RTIME   =   -0.100 relaxation time in fs
  (WPLASMAI=    0.000 imaginary part of plasma frequency in eV, 0.658/RTIME)
   DFIELD  = 0.0000000 0.0000000 0.0000000 field for delta impulse in time

 Orbital magnetization related:
   ORBITALMAG=     F  switch on orbital magnetization
   LCHIMAG   =     F  perturbation theory with respect to B field
   DQ        =  0.001000  dq finite difference perturbation B field
   LLRAUG    =     F  two centre corrections for induced B field

 Static calculation
 charge density and potential will be updated during run
 non-spin polarized calculation
 Variant of blocked Davidson
 Davidson routine will perform the subspace rotation
 perform sub-space diagonalisation
    after iterative eigenvector-optimisation
 modified Broyden-mixing scheme, WC =      100.0
 initial mixing is a Kerker type mixing with AMIX =  0.4000 and BMIX =      1.0000
 Hartree-type preconditioning will be used
 using additional bands           16
 reciprocal scheme for non local part
 use partial core corrections
 calculate Harris-corrections to forces
   (improved forces if not selfconsistent)
 use gradient corrections
 use of overlap-Matrix (Vanderbilt PP)
 Gauss-broadening in eV      SIGMA  =   0.05

  energy-cutoff  :      500.00
  volume of cell :       41.15
      direct lattice vectors                 reciprocal lattice vectors
     1.256237318 -2.175866861  0.000000000     0.398013968 -0.229793472  0.000000000
     1.256237318  2.175866861  0.000000000     0.398013968  0.229793472  0.000000000
     0.000000000  0.000000000  7.526459174     0.000000000  0.000000000  0.132864602

  length of vectors
     2.512474636  2.512474636  7.526459174     0.459586943  0.459586943  0.132864602

 k-points in units of 2pi/SCALE and weight: A
   0.00000000  0.00000000  0.00000000       0.004
   0.04975175 -0.02872418  0.00000000       0.023
   0.09950349 -0.05744837  0.00000000       0.023
   0.14925524 -0.08617255  0.00000000       0.023
   0.19900698 -0.11489674  0.00000000       0.012
   0.09950349  0.00000000  0.00000000       0.023
   0.14925524 -0.02872418  0.00000000       0.047
   0.19900698 -0.05744837  0.00000000       0.047
   0.19900698  0.00000000  0.00000000       0.023
   0.24875873 -0.02872418  0.00000000       0.023
   0.00000000  0.00000000  0.03321615       0.008
   0.04975175 -0.02872418  0.03321615       0.047
   0.09950349 -0.05744837  0.03321615       0.047
   0.14925524 -0.08617255  0.03321615       0.047
   0.19900698 -0.11489674  0.03321615       0.023
   0.09950349  0.00000000  0.03321615       0.047
   0.14925524 -0.02872418  0.03321615       0.094
   0.19900698 -0.05744837  0.03321615       0.094
   0.19900698  0.00000000  0.03321615       0.047
   0.24875873 -0.02872418  0.03321615       0.047
   0.00000000  0.00000000  0.06643230       0.004
   0.04975175 -0.02872418  0.06643230       0.023
   0.09950349 -0.05744837  0.06643230       0.023
   0.14925524 -0.08617255  0.06643230       0.023
   0.19900698 -0.11489674  0.06643230       0.012
   0.09950349  0.00000000  0.06643230       0.023
   0.14925524 -0.02872418  0.06643230       0.047
   0.19900698 -0.05744837  0.06643230       0.047
   0.19900698  0.00000000  0.06643230       0.023
   0.24875873 -0.02872418  0.06643230       0.023

 k-points in reciprocal lattice and weights: A
   0.00000000  0.00000000  0.00000000       0.004
   0.12500000  0.00000000  0.00000000       0.023
   0.25000000  0.00000000  0.00000000       0.023
   0.37500000  0.00000000  0.00000000       0.023
   0.50000000  0.00000000  0.00000000       0.012
   0.12500000  0.12500000  0.00000000       0.023
   0.25000000  0.12500000  0.00000000       0.047
   0.37500000  0.12500000  0.00000000       0.047
   0.25000000  0.25000000  0.00000000       0.023
   0.37500000  0.25000000  0.00000000       0.023
   0.00000000  0.00000000  0.25000000       0.008
   0.12500000  0.00000000  0.25000000       0.047
   0.25000000  0.00000000  0.25000000       0.047
   0.37500000  0.00000000  0.25000000       0.047
   0.50000000  0.00000000  0.25000000       0.023
   0.12500000  0.12500000  0.25000000       0.047
   0.25000000  0.12500000  0.25000000       0.094
   0.37500000  0.12500000  0.25000000       0.094
   0.25000000  0.25000000  0.25000000       0.047
   0.37500000  0.25000000  0.25000000       0.047
   0.00000000  0.00000000  0.50000000       0.004
   0.12500000  0.00000000  0.50000000       0.023
   0.25000000  0.00000000  0.50000000       0.023
   0.37500000  0.00000000  0.50000000       0.023
   0.50000000  0.00000000  0.50000000       0.012
   0.12500000  0.12500000  0.50000000       0.023
   0.25000000  0.12500000  0.50000000       0.047
   0.37500000  0.12500000  0.50000000       0.047
   0.25000000  0.25000000  0.50000000       0.023
   0.37500000  0.25000000  0.50000000       0.023

 position of ions in fractional coordinates (direct lattice)
   0.00000000  0.00000000  0.00000000
   0.33333333  0.66666667  0.00000000

 position of ions in cartesian coordinates  (Angst):
   0.00000000  0.00000000  0.00000000
   1.25623732  0.72528895  0.00000000

 k-point  1 :   0.0000 0.0000 0.0000  plane waves:    1041
 k-point  2 :   0.1250 0.0000 0.0000  plane waves:    1056
 k-point  3 :   0.2500 0.0000 0.0000  plane waves:    1062
 k-point  4 :   0.3750 0.0000 0.0000  plane waves:    1040
 k-point  5 :   0.5000 0.0000 0.0000  plane waves:    1032
 k-point  6 :   0.1250 0.1250 0.0000  plane waves:    1053
 k-point  7 :   0.2500 0.1250 0.0000  plane waves:    1050
 k-point  8 :   0.3750 0.1250 0.0000  plane waves:    1041
 k-point  9 :   0.2500 0.2500 0.0000  plane waves:    1025
 k-point 10 :   0.3750 0.2500 0.0000  plane waves:    1024
 k-point 11 :   0.0000 0.0000 0.2500  plane waves:    1041
 k-point 12 :   0.1250 0.0000 0.2500  plane waves:    1055
 k-point 13 :   0.2500 0.0000 0.2500  plane waves:    1061
 k-point 14 :   0.3750 0.0000 0.2500  plane waves:    1041
 k-point 15 :   0.5000 0.0000 0.2500  plane waves:    1032
 k-point 16 :   0.1250 0.1250 0.2500  plane waves:    1058
 k-point 17 :   0.2500 0.1250 0.2500  plane waves:    1045
 k-point 18 :   0.3750 0.1250 0.2500  plane waves:    1043
 k-point 19 :   0.2500 0.2500 0.2500  plane waves:    1039
 k-point 20 :   0.3750 0.2500 0.2500  plane waves:    1028
 k-point 21 :   0.0000 0.0000 0.5000  plane waves:    1048
 k-point 22 :   0.1250 0.0000 0.5000  plane waves:    1060
 k-point 23 :   0.2500 0.0000 0.5000  plane waves:    1050
 k-point 24 :   0.3750 0.0000 0.5000  plane waves:    1040
 k-point 25 :   0.5000 0.0000 0.5000  plane waves:    1020
 k-point 26 :   0.1250 0.1250 0.5000  plane waves:    1056
 k-point 27 :   0.2500 0.1250 0.5000  plane waves:    1048
 k-point 28 :   0.3750 0.1250 0.5000  plane waves:    1032
 k-point 29 :   0.2500 0.2500 0.5000  plane waves:    1048
 k-point 30 :   0.3750 0.2500 0.5000  plane waves:    1044

 maximum and minimum number of plane-waves per node :      1062     1020

 maximum number of plane-waves:      1062
 maximum index in each direction:
   IXMAX=    4   IYMAX=    4   IZMAX=   13
   IXMIN=   -5   IYMIN=   -4   IZMIN=  -14

 serial   3D FFT for wavefunctions
 parallel 3D FFT for charge:
    minimum data exchange during FFTs selected (reduces bandwidth)

 Broyden mixing: mesh for mixing (old mesh)
   NGX =  9   NGY =  9   NGZ = 27
  (NGX  = 28   NGY  = 28   NGZ  = 84)
  gives a total of   2187 points

 initial charge density was supplied:
 charge density of overlapping atoms calculated
 number of electron       8.0000000 magnetization
 keeping initial charge density in first step

 Maximum index for augmentation-charges         1246 (set IRDMAX)

 First call to EWALD:  gamma=   0.513
 Maximum number of real-space cells 4x 4x 2
 Maximum number of reciprocal cells 2x 2x 5

--------------------------------------- Iteration      1(   1)  ---------------------------------------

 eigenvalue-minimisations  :  1200
 total energy-change (2. order) : 0.2850281E+01  (-0.4301884E+03)
 number of electron       8.0000000 magnetization
 augmentation part        8.0000000 magnetization

 Free energy of the ion-electron system (eV)
  alpha Z        PSCENC =         8.64846017
  Ewald energy   TEWEN  =       121.23345169
  -Hartree energ DENC   =      -401.58828547
  -exchange      EXHF   =         0.00000000
  -V(xc)+E(xc)   XCENC  =        26.90598202
  PAW double counting   =       248.43259712     -248.76826126
  entropy T*S    EENTRO =        -0.00000000
  eigenvalues    EBANDS =       -87.71762989
  atomic energy  EATOM  =       335.70396624
  Solvation  Ediel_sol  =         0.00000000
  free energy    TOTEN  =         2.85028062 eV

  energy without entropy =        2.85028062  energy(sigma->0) =        2.85028062

[...]

 eigenvalue-minimisations  :  1780
 total energy-change (2. order) :-0.2224243E+02  (-0.2224243E+02)
 number of electron       8.0000000 magnetization
 augmentation part        8.0000000 magnetization

[...]

 Broyden mixing:
  rms(total) = 0.79613E+00    rms(broyden)= 0.79587E+00
  rms(prec ) = 0.11903E+01
  weight for this iteration     100.00

[...]

 eigenvalues of (default mixing * dielectric matrix)
  average eigenvalue GAMMA=   1.0891
  1.0891

[...]

 eigenvalue-minimisations  :  1620
 total energy-change (2. order) : 0.1181856E-02  (-0.3331649E-03)
 number of electron       8.0000000 magnetization
 augmentation part        0.2355432 magnetization

[...]

 Broyden mixing:
  rms(total) = 0.15946E-02    rms(broyden)= 0.15934E-02
  rms(prec ) = 0.18274E-02
  weight for this iteration     100.00

 eigenvalues of (default mixing * dielectric matrix)
  average eigenvalue GAMMA=   2.2790
  5.3401  2.8985  2.5129  2.1305  0.9922  1.0396  1.0396

[...]

--------------------------------------- Iteration      1(  13)  ---------------------------------------

 eigenvalue-minimisations  :  1360
 total energy-change (2. order) :-0.4850950E-04  (-0.9103818E-06)
 number of electron       8.0000000 magnetization
 augmentation part        0.2352355 magnetization

 Free energy of the ion-electron system (eV)
  alpha Z        PSCENC =         8.64846017
  Ewald energy   TEWEN  =       121.23345169
  -Hartree energ DENC   =      -435.83441785
  -exchange      EXHF   =         0.00000000
  -V(xc)+E(xc)   XCENC  =        28.32354723
  PAW double counting   =       925.58383299     -926.31411995
  entropy T*S    EENTRO =        -0.00000000
  eigenvalues    EBANDS =       -74.94244893
  atomic energy  EATOM  =       335.70396624
  Solvation  Ediel_sol  =         0.00000000
  free energy    TOTEN  =       -17.59772842 eV

  energy without entropy =      -17.59772842  energy(sigma->0) =      -17.59772842

 average (electrostatic) potential at core
  the test charge radii are     0.7672  0.7089
  (the norm of the test charge is              1.0000)
       1 -33.5724       2 -69.4744

 E-fermi :  -2.1125     XC(G=0):  -5.4388     alpha+bet : -4.8091

 k-point     1 :       0.0000    0.0000    0.0000
  band No.  band energies     occupation
      1     -19.8679      2.00000
      2      -7.4569      2.00000
      3      -3.6056      2.00000
      4      -3.6055      2.00000
      5       2.0512      0.00000
      6       5.2068      0.00000
      7       6.8077      0.00000
      8       9.2567      0.00000
      9       9.2567      0.00000
     10      10.7640      0.00000
     11      11.8342      0.00000
     12      17.2441      0.00000
     13      20.4381      0.00000
     14      23.2643      0.00000
     15      27.3837      0.00000
     16      27.3837      0.00000
     17      29.1618      0.00000
     18      30.4350      0.00000
     19      30.4350      0.00000
     20      33.0607      0.00000

[...]

 k-point    30 :       0.3750    0.2500    0.5000
  band No.  band energies     occupation
      1     -16.3533      2.00000
      2     -10.4118      2.00000
      3      -8.7972      2.00000
      4      -2.4522      2.00000
      5       2.4869      0.00000
      6      10.2178      0.00000
      7      10.6119      0.00000
      8      11.8897      0.00000
      9      12.3518      0.00000
     10      13.1836      0.00000
     11      13.5557      0.00000
     12      16.1152      0.00000
     13      16.5388      0.00000
     14      17.2686      0.00000
     15      18.3641      0.00000
     16      19.0023      0.00000
     17      21.1209      0.00000
     18      22.3277      0.00000
     19      24.6680      0.00000
     20      25.1200      0.00000

 soft charge-density along one line, spin component           1
         0         1         2         3         4         5         6         7         8         9
 total charge-density along one line

------------------------ aborting loop because EDIFF is reached ----------------------------------------

 total charge

# of ion       s       p       d       tot
    1        0.740   1.413   0.000   2.154
    2        1.225   2.786   0.000   4.011
tot          1.965   4.200   0.000   6.165

  FORCE on cell =-STRESS in cart. coord.  units (eV):
  Direction    XX          YY          ZZ          XY          YZ          ZX
  Alpha Z     8.64846     8.64846     8.64846
  Ewald     392.78745   392.78745  -664.34157    -0.00000     0.00000    -0.00000
  Hartree   407.00106   407.00106  -378.16441    -0.00000    -0.00000     0.00000
  E(xc)     -31.54095   -31.54095   -32.48848     0.00000     0.00000     0.00000
  Local    -890.80752  -890.80714   935.97488    -0.00000     0.00000    -0.00005
  n-local   -15.43484   -14.65871   -14.97058     0.06546    -0.00020     0.00025
  augment     1.08501     1.08495     1.26227     0.00000    -0.00000    -0.00000
  Kinetic   129.19495   126.57515   144.05010     1.11878     0.00117    -0.00513
  Fock        0.00000     0.00000     0.00000     0.00000     0.00000     0.00000
  Total       0.01195     0.01195    -0.02933     0.00000     0.00000    -0.00000
  in kB       0.46545     0.46545    -1.14226     0.00000     0.00000    -0.00000

 VOLUME and BASIS-vectors are now :
  energy-cutoff  :      500.00
  volume of cell :       41.15
      direct lattice vectors                 reciprocal lattice vectors
     1.256237318 -2.175866861  0.000000000     0.398013968 -0.229793472  0.000000000
     1.256237318  2.175866861  0.000000000     0.398013968  0.229793472  0.000000000
     0.000000000  0.000000000  7.526459174     0.000000000  0.000000000  0.132864602

  length of vectors
     2.512474636  2.512474636  7.526459174     0.459586943  0.459586943  0.132864602

 FORCES acting on ions
    electron-ion (+dipol)            ewald-force                    non-local-force                 convergence-correction
   -.378E-13 -.122E-04 0.349E-14   0.462E-14 -.651E-11 0.610E-19   -.278E-16 0.555E-16 0.000E+00   0.100E-14 0.484E-07 -.179E-14
   0.165E-12 -.668E-06 -.124E-11   -.366E-14 0.651E-11 -.610E-19   0.694E-17 0.000E+00 0.000E+00   0.971E-15 0.248E-07 -.376E-14
   0.128E-12 -.129E-04 -.124E-11   0.955E-15 0.101E-14 0.000E+00   -.208E-16 0.555E-16 0.000E+00   0.197E-14 0.732E-07 -.555E-14

 POSITION                                       TOTAL-FORCE (eV/Angst)
      0.00000      0.00000      0.00000         0.000000      0.000000      0.000000
      1.25624      0.72529      0.00000         0.000000     -0.000000      0.000000
    total drift:                                0.000000     -0.000013     -0.000000

  FREE ENERGIE OF THE ION-ELECTRON SYSTEM (eV)
  free  energy   TOTEN  =       -17.59772842 eV

  energy  without entropy=      -17.59772842  energy(sigma->0) =      -17.59772842

 writing wavefunctions

 total charge

# of ion       s       p       d       tot
    1        0.740   1.413   0.000   2.154
    2        1.225   2.786   0.000   4.011
tot          1.965   4.200   0.000   6.165