 vasp.5.4.4.18Apr17-6-g9f103f2a35 (build May 10 2019 17:57:18) complex

 executed on             LinuxIFC date 2024.07.16  00:27:08

 INCAR:
 POTCAR:    PAW_PBE B 06Sep2000
 POTCAR:    PAW_PBE N 08Apr2002

   TITEL  = PAW_PBE B 06Sep2000
   POMASS =   10.811; ZVAL   =    3.000    mass and valenz
   ENMAX  =  318.614; ENMIN  =  238.960 eV

   TITEL  = PAW_PBE N 08Apr2002
   POMASS =   14.001; ZVAL   =    5.000    mass and valenz
   ENMAX  =  400.000; ENMIN  =  300.000 eV

  PAW_PBE B 06Sep2000                   :
  PAW_PBE N 08Apr2002                   :

 POSCAR: B2 N2
  positions in direct lattice
  velocities in cartesian coordinates
 exchange correlation table for  LEXCH =        8
   RHO(1)=    0.500       N(1)  =     2000
   RHO(2)=  100.500       N(2)  =     4000

 ion  position               nearest neighbor table
   1  0.000  0.000  0.000-   2 1.45   2 1.45   2 1.45
   2  0.333  0.667  0.000-   1 1.45   1 1.45   1 1.45

  LATTYP: Found a hexagonal cell.
 ALAT       =     2.5124746362
 C/A-ratio  =     2.9956358826

  Lattice vectors:

 A1 = (   1.2562373181,  -2.1758668613,   0.0000000000)
 A2 = (   1.2562373181,   2.1758668613,   0.0000000000)
 A3 = (   0.0000000000,   0.0000000000,   7.5264591742)

Analysis of symmetry for initial positions (statically):
 Subroutine PRICEL returns:
 Original cell was already a primitive cell.

 Routine SETGRP: Setting up the symmetry group for a
 hexagonal supercell.

 Subroutine GETGRP returns: Found 12 space group operations
 (whereof 12 operations were pure point group operations)
 out of a pool of 24 trial point group operations.

The static configuration has the point symmetry D_3h.

Analysis of symmetry for dynamics (positions and initial velocities):
 Subroutine PRICEL returns:
 Original cell was already a primitive cell.

 Routine SETGRP: Setting up the symmetry group for a
 hexagonal supercell.

 Subroutine GETGRP returns: Found 12 space group operations
 (whereof 12 operations were pure point group operations)
 out of a pool of 24 trial point group operations.

The dynamic configuration has the point symmetry D_3h.

 Subroutine INISYM returns: Found 12 space group operations
 (whereof 12 operations are pure point group operations),
 and found     1 'primitive' translations

 KPOINTS: BANDS BN
  interpolating k-points between supplied coordinates
  k-points in reciprocal lattice
Space group operators:
 irot       det(A)        alpha          n_x          n_y          n_z        tau_x        tau_y        tau_z
    1     1.000000     0.000000     1.000000     0.000000     0.000000     0.000000     0.000000     0.000000
    2    -1.000000    60.000000     0.000000     0.000000    -1.000000     0.000000     0.000000     0.000000
    3     1.000000   120.000000     0.000000     0.000000    -1.000000     0.000000     0.000000     0.000000
    4    -1.000000   180.000000     0.000000     0.000000     1.000000     0.000000     0.000000     0.000000
    5     1.000000   120.000000     0.000000     0.000000     1.000000     0.000000     0.000000     0.000000
    6    -1.000000    60.000000     0.000000     0.000000     1.000000     0.000000     0.000000     0.000000
    7    -1.000000   180.000000     0.500000    -0.866025     0.000000     0.000000     0.000000     0.000000
    8     1.000000   180.000000     0.000000     1.000000     0.000000     0.000000     0.000000     0.000000
    9    -1.000000   180.000000    -0.500000    -0.866025     0.000000     0.000000     0.000000     0.000000
   10     1.000000   180.000000     0.866025     0.500000     0.000000     0.000000     0.000000     0.000000
   11    -1.000000   180.000000     1.000000     0.000000     0.000000     0.000000     0.000000     0.000000
   12     1.000000   180.000000     0.866025    -0.500000     0.000000     0.000000     0.000000     0.000000

 SYSTEM =  BiFeO3
 POSCAR =  B2 N2

 Startparameter for this run:
   NWRITE =      2    write-flag & timer
   PREC   = normal    normal or accurate (medium, high low for compatibility)
   ISTART =      1    job   : 0-new  1-cont  2-samecut
   ICHARG =     11    charge: 1-file 2-atom 10-const
   ISPIN  =      1    spin polarized calculation?
   LNONCOLLINEAR =      F non collinear calculations
   LSORBIT =      F    spin-orbit coupling
   INIWAV =      1    electr: 0-lowe 1-rand  2-diag
   LASPH  =      F    aspherical Exc in radial PAW
   METAGGA=      F    non-selfconsistent MetaGGA calc.

 Electronic Relaxation 1
   ENCUT  =  500.0 eV  36.75 Ry    6.06 a.u.   4.58  4.58 13.72*2*pi/ulx,y,z
   ENINI  =  500.0     initial cutoff
   ENAUG  =  627.1 eV  augmentation charge cutoff
   NELM   =     60;   NELMIN=  2; NELMDL=  0     # of ELM steps
   EDIFF  = 0.1E-03   stopping-criterion for ELM
   LREAL  =      F    real-space projection
   NLSPLINE    = F    spline interpolate recip. space projectors
   LCOMPAT=      F    compatible to vasp.4.4
   GGA_COMPAT  = T    GGA compatible to vasp.4.4-vasp.4.6
   LMAXPAW     = -100 max onsite density
   LMAXMIX     =    2 max onsite mixed and CHGCAR
   VOSKOWN=      0    Vosko Wilk Nusair interpolation
   ROPT   =    0.00000   0.00000
 Ionic relaxation
   EDIFFG = 0.1E-02   stopping-criterion for IOM
   NSW    =      0    number of steps for IOM
   NBLOCK =      1;   KBLOCK =      1    inner block; outer block
   IBRION =     -1    ionic relax: 0-MD 1-quasi-New 2-CG
   NFREE  =      0    steps in history (QN), initial steepest desc. (CG)
   ISIF   =      2    stress and relaxation
   IWAVPR =     10    prediction:  0-non 1-charg 2-wave 3-comb
   ISYM   =      2    0-nonsym 1-usesym 2-fastsym
   LCORR  =      T    Harris-Foulkes like correction to forces

   POTIM  = 0.5000    time-step for ionic-motion
   TEIN   =    0.0    initial temperature
   TEBEG  =    0.0;   TEEND  =   0.0 temperature during run
   SMASS  =  -3.00    Nose mass-parameter (am)
   estimated Nose-frequenzy (Omega)   =  0.10E-29 period in steps =****** mass=  -0.144E-27a.u.
   SCALEE = 1.0000    scale energy and forces
   NPACO  =    256;   APACO  = 16.0  distance and # of slots for P.C.
   PSTRESS=    0.0 pullay stress

  Mass of Ions in am
   POMASS =  10.81 14.00
  Ionic Valenz
   ZVAL   =   3.00  5.00
  Atomic Wigner-Seitz radii
  virtual crystal weights
   VCA    =   1.00  1.00
   NELECT =       8.0000    total number of electrons
   NUPDOWN=      -1.0000    fix difference up-down

 DOS related values:
   EMIN   =  10.00;   EMAX   =-10.00  energy-range for DOS
   EFERMI =   0.00
   ISMEAR =     0;   SIGMA  =   0.05  broadening in eV -4-tet -1-fermi 0-gaus

 Electronic relaxation 2 (details)
   IALGO  =     38    algorithm
   LDIAG  =      T    sub-space diagonalisation (order eigenvalues)
   LSUBROT=      F    optimize rotation matrix (better conditioning)
   TURBO    =      0    0=normal 1=particle mesh
   IRESTART =      0    0=no restart 2=restart with 2 vectors
   NREBOOT  =      0    no. of reboots
   NMIN     =      0    reboot dimension
   EREF     =   0.00    reference energy to select bands
   IMIX   =      4    mixing-type and parameters
     AMIX     =   0.40;   BMIX     =  1.00
     AMIX_MAG =   1.60;   BMIX_MAG =  1.00
     AMIN     =   0.10
     WC   =   100.;   INIMIX=   1;  MIXPRE=   1;  MAXMIX= -45

 Intra band minimization:
   WEIMIN = 0.0000     energy-eigenvalue tresh-hold
   EBREAK =  0.13E-05  absolut break condition
   DEPER  =   0.30     relativ break condition

   TIME   =   0.40     timestep for ELM

  volume/ion in A,a.u.               =      20.57       138.83
  Fermi-wavevector in a.u.,A,eV,Ry     =   0.948411  1.792237 12.238215  0.899483
  Thomas-Fermi vector in A             =   2.076597

 Write flags
   LWAVE        =      T    write WAVECAR
   LDOWNSAMPLE  =      F    k-point downsampling of WAVECAR
   LCHARG       =      T    write CHGCAR
   LVTOT        =      F    write LOCPOT, total local potential
   LVHAR        =      F    write LOCPOT, Hartree potential only
   LELF         =      F    write electronic localiz. function (ELF)
   LORBIT       =     11    0 simple, 1 ext, 2 COOP (PROOUT), +10 PAW based schemes

 Dipole corrections
   LMONO  =      F    monopole corrections only (constant potential shift)
   LDIPOL =      F    correct potential (dipole corrections)
   IDIPOL =      0    1-x, 2-y, 3-z, 4-all directions
   EPSILON=  1.0000000 bulk dielectric constant

 Exchange correlation treatment:
   GGA     =    --    GGA type
   VOSKOWN=      0    Vosko Wilk Nusair interpolation
   LHFCALC =     F    Hartree Fock is set to
   LHFONE  =     F    Hartree Fock one center treatment
   AEXX    =    0.0000 exact exchange contribution

 Linear response parameters
   LEPSILON=     F    determine dielectric tensor
   LRPA    =     F    only Hartree local field effects (RPA)
   LNABLA  =     F    use nabla operator in PAW spheres
   LVEL    =     F    velocity operator in full k-point grid
   LINTERFAST=   F  fast interpolation
   KINTER  =     0    interpolate to denser k-point grid
   CSHIFT  =0.1000    complex shift for real part using Kramers Kronig
   OMEGAMAX=  -1.0    maximum frequency
   DEG_THRESHOLD= 0.2000000E-02 threshold for treating states as degnerate
   RTIME   =   -0.100 relaxation time in fs
  (WPLASMAI=    0.000 imaginary part of plasma frequency in eV, 0.658/RTIME)
   DFIELD  = 0.0000000 0.0000000 0.0000000 field for delta impulse in time

 Orbital magnetization related:
   ORBITALMAG=     F  switch on orbital magnetization
   LCHIMAG   =     F  perturbation theory with respect to B field
   DQ        =  0.001000  dq finite difference perturbation B field
   LLRAUG    =     F  two centre corrections for induced B field

 Static calculation
 charge density and potential remain constant during run
 non-spin polarized calculation
 Variant of blocked Davidson
 Davidson routine will perform the subspace rotation
 perform sub-space diagonalisation
    after iterative eigenvector-optimisation
 no mixing
 using additional bands           16
 reciprocal scheme for non local part
 use partial core corrections
 calculate Harris-corrections to forces
   (improved forces if not selfconsistent)
 use gradient corrections
 WARNING: stress and forces are not correct
  (second derivative of E(xc) not defined)
 use of overlap-Matrix (Vanderbilt PP)
 Gauss-broadening in eV      SIGMA  =   0.05

  energy-cutoff  :      500.00
  volume of cell :       41.15
      direct lattice vectors                 reciprocal lattice vectors
     1.256237318 -2.175866861  0.000000000     0.398013968 -0.229793472  0.000000000
     1.256237318  2.175866861  0.000000000     0.398013968  0.229793472  0.000000000
     0.000000000  0.000000000  7.526459174     0.000000000  0.000000000  0.132864602

  length of vectors
     2.512474636  2.512474636  7.526459174     0.459586943  0.459586943  0.132864602

 old parameters found on file WAVECAR:
  energy-cutoff  :      500.00
  volume of cell :       41.15
      direct lattice vectors                 reciprocal lattice vectors
     1.256237318 -2.175866861  0.000000000     0.398013968 -0.229793472  0.000000000
     1.256237318  2.175866861  0.000000000     0.398013968  0.229793472  0.000000000
[...]
   0.33157895  0.25263158  0.00000000       0.007
   0.32105263  0.26842105  0.00000000       0.007
   0.31052632  0.28421053  0.00000000       0.007
   0.30000000  0.30000000  0.00000000       0.007
   0.30000000  0.30000000  0.00000000       0.007
   0.28421053  0.28421053  0.00000000       0.007
   0.26842105  0.26842105  0.00000000       0.007
   0.25263158  0.25263158  0.00000000       0.007
   0.23684211  0.23684211  0.00000000       0.007
   0.22105263  0.22105263  0.00000000       0.007
   0.20526316  0.20526316  0.00000000       0.007
   0.18947368  0.18947368  0.00000000       0.007
   0.17368421  0.17368421  0.00000000       0.007
   0.15789474  0.15789474  0.00000000       0.007
   0.14210526  0.14210526  0.00000000       0.007
   0.12631579  0.12631579  0.00000000       0.007
   0.11052632  0.11052632  0.00000000       0.007
   0.09473684  0.09473684  0.00000000       0.007
   0.07894737  0.07894737  0.00000000       0.007
   0.06315789  0.06315789  0.00000000       0.007
   0.04736842  0.04736842  0.00000000       0.007
   0.03157895  0.03157895  0.00000000       0.007
   0.01578947  0.01578947  0.00000000       0.007
   0.00000000  0.00000000  0.00000000       0.007
[...]
   0.22105263  0.22105263  0.50000000       0.007
   0.20526316  0.20526316  0.50000000       0.007
   0.18947368  0.18947368  0.50000000       0.007
   0.17368421  0.17368421  0.50000000       0.007
   0.15789474  0.15789474  0.50000000       0.007
   0.14210526  0.14210526  0.50000000       0.007
   0.12631579  0.12631579  0.50000000       0.007
   0.11052632  0.11052632  0.50000000       0.007
   0.09473684  0.09473684  0.50000000       0.007
   0.07894737  0.07894737  0.50000000       0.007
   0.06315789  0.06315789  0.50000000       0.007
   0.04736842  0.04736842  0.50000000       0.007
   0.03157895  0.03157895  0.50000000       0.007
   0.01578947  0.01578947  0.50000000       0.007
   0.00000000  0.00000000  0.50000000       0.007

 position of ions in fractional coordinates (direct lattice)
   0.00000000  0.00000000  0.00000000
   0.33333333  0.66666667  0.00000000

 position of ions in cartesian coordinates  (Angst):
   0.00000000  0.00000000  0.00000000
   1.25623732  0.72528895  0.00000000

 k-point  1 :   0.0000 0.0000 0.0000  plane waves:    1041
 k-point  2 :   0.0263 0.0000 0.0000  plane waves:    1047
 k-point  3 :   0.0526 0.0000 0.0000  plane waves:    1054
 k-point  4 :   0.0789 0.0000 0.0000  plane waves:    1064
 k-point  5 :   0.1053 0.0000 0.0000  plane waves:    1060
 k-point  6 :   0.1316 0.0000 0.0000  plane waves:    1054
 k-point  7 :   0.1579 0.0000 0.0000  plane waves:    1062
 k-point  8 :   0.1842 0.0000 0.0000  plane waves:    1066
 k-point  9 :   0.2105 0.0000 0.0000  plane waves:    1068
 k-point 10 :   0.2368 0.0000 0.0000  plane waves:    1062
 k-point 11 :   0.2632 0.0000 0.0000  plane waves:    1062
 k-point 12 :   0.2895 0.0000 0.0000  plane waves:    1058
 k-point 13 :   0.3158 0.0000 0.0000  plane waves:    1060
 k-point 14 :   0.3421 0.0000 0.0000  plane waves:    1056
 k-point 15 :   0.3684 0.0000 0.0000  plane waves:    1048
 k-point 16 :   0.3947 0.0000 0.0000  plane waves:    1040
 k-point 17 :   0.4211 0.0000 0.0000  plane waves:    1038
 k-point 18 :   0.4474 0.0000 0.0000  plane waves:    1034
 k-point 19 :   0.4737 0.0000 0.0000  plane waves:    1034
 k-point 20 :   0.5000 0.0000 0.0000  plane waves:    1032
 k-point 21 :   0.5000 0.0000 0.0000  plane waves:    1032
 k-point 22 :   0.4895 0.0158 0.0000  plane waves:    1034
 k-point 23 :   0.4789 0.0316 0.0000  plane waves:    1034
 k-point 24 :   0.4684 0.0474 0.0000  plane waves:    1032
 k-point 25 :   0.4579 0.0632 0.0000  plane waves:    1032
 k-point 26 :   0.4474 0.0789 0.0000  plane waves:    1042
 k-point 27 :   0.4368 0.0947 0.0000  plane waves:    1042
 k-point 28 :   0.4263 0.1105 0.0000  plane waves:    1046
 k-point 29 :   0.4158 0.1263 0.0000  plane waves:    1045
 k-point 30 :   0.4053 0.1421 0.0000  plane waves:    1045
 k-point 31 :   0.3947 0.1579 0.0000  plane waves:    1043
 k-point 32 :   0.3842 0.1737 0.0000  plane waves:    1041
 k-point 33 :   0.3737 0.1895 0.0000  plane waves:    1039
 k-point 34 :   0.3632 0.2053 0.0000  plane waves:    1035
 k-point 35 :   0.3526 0.2211 0.0000  plane waves:    1033
 k-point 36 :   0.3421 0.2368 0.0000  plane waves:    1030
 k-point 37 :   0.3316 0.2526 0.0000  plane waves:    1025
 k-point 38 :   0.3211 0.2684 0.0000  plane waves:    1028
 k-point 39 :   0.3105 0.2842 0.0000  plane waves:    1024
 k-point 40 :   0.3000 0.3000 0.0000  plane waves:    1026
 k-point 41 :   0.3000 0.3000 0.0000  plane waves:    1026
 k-point 42 :   0.2842 0.2842 0.0000  plane waves:    1029
 k-point 43 :   0.2684 0.2684 0.0000  plane waves:    1033
 k-point 44 :   0.2526 0.2526 0.0000  plane waves:    1029
 k-point 45 :   0.2368 0.2368 0.0000  plane waves:    1037
 k-point 46 :   0.2211 0.2211 0.0000  plane waves:    1029
 k-point 47 :   0.2053 0.2053 0.0000  plane waves:    1035
 k-point 48 :   0.1895 0.1895 0.0000  plane waves:    1045
 k-point 49 :   0.1737 0.1737 0.0000  plane waves:    1053
 k-point 50 :   0.1579 0.1579 0.0000  plane waves:    1049
 k-point 51 :   0.1421 0.1421 0.0000  plane waves:    1057
 k-point 52 :   0.1263 0.1263 0.0000  plane waves:    1053
 k-point 53 :   0.1105 0.1105 0.0000  plane waves:    1063
 k-point 54 :   0.0947 0.0947 0.0000  plane waves:    1059
 k-point 55 :   0.0789 0.0789 0.0000  plane waves:    1055
 k-point 56 :   0.0632 0.0632 0.0000  plane waves:    1059
 k-point 57 :   0.0474 0.0474 0.0000  plane waves:    1057
 k-point 58 :   0.0316 0.0316 0.0000  plane waves:    1061
 k-point 59 :   0.0158 0.0158 0.0000  plane waves:    1045
 k-point 60 :   0.0000 0.0000 0.0000  plane waves:    1041
[...]
 k-point 85 :   0.1053 0.0000 0.5000  plane waves:    1046
 k-point 86 :   0.1316 0.0000 0.5000  plane waves:    1060
 k-point 87 :   0.1579 0.0000 0.5000  plane waves:    1058
 k-point 88 :   0.1842 0.0000 0.5000  plane waves:    1066
 k-point 89 :   0.2105 0.0000 0.5000  plane waves:    1062
 k-point 90 :   0.2368 0.0000 0.5000  plane waves:    1054
 k-point 91 :   0.2632 0.0000 0.5000  plane waves:    1052
 k-point 92 :   0.2895 0.0000 0.5000  plane waves:    1050
 k-point 93 :   0.3158 0.0000 0.5000  plane waves:    1050
 k-point 94 :   0.3421 0.0000 0.5000  plane waves:    1040
 k-point 95 :   0.3684 0.0000 0.5000  plane waves:    1044
 k-point 96 :   0.3947 0.0000 0.5000  plane waves:    1040
 k-point 97 :   0.4211 0.0000 0.5000  plane waves:    1040
 k-point 98 :   0.4474 0.0000 0.5000  plane waves:    1042
 k-point 99 :   0.4737 0.0000 0.5000  plane waves:    1038
 k-point ** :   0.5000 0.0000 0.5000  plane waves:    1020
 k-point ** :   0.5000 0.0000 0.5000  plane waves:    1020
 k-point ** :   0.4895 0.0158 0.5000  plane waves:    1030
 k-point ** :   0.4789 0.0316 0.5000  plane waves:    1036
 k-point ** :   0.4684 0.0474 0.5000  plane waves:    1044
 k-point ** :   0.4579 0.0632 0.5000  plane waves:    1046
 k-point ** :   0.4474 0.0789 0.5000  plane waves:    1040
 k-point ** :   0.4368 0.0947 0.5000  plane waves:    1038
 k-point ** :   0.4263 0.1105 0.5000  plane waves:    1036
 k-point ** :   0.4158 0.1263 0.5000  plane waves:    1036
 k-point ** :   0.4053 0.1421 0.5000  plane waves:    1038
 k-point ** :   0.3947 0.1579 0.5000  plane waves:    1032
 k-point ** :   0.3842 0.1737 0.5000  plane waves:    1034
 k-point ** :   0.3737 0.1895 0.5000  plane waves:    1038
 k-point ** :   0.3632 0.2053 0.5000  plane waves:    1040
 k-point ** :   0.3526 0.2211 0.5000  plane waves:    1044
 k-point ** :   0.3421 0.2368 0.5000  plane waves:    1040
 k-point ** :   0.3316 0.2526 0.5000  plane waves:    1042
 k-point ** :   0.3211 0.2684 0.5000  plane waves:    1040
 k-point ** :   0.3105 0.2842 0.5000  plane waves:    1036
 k-point ** :   0.3000 0.3000 0.5000  plane waves:    1038
 k-point ** :   0.3000 0.3000 0.5000  plane waves:    1038
 k-point ** :   0.2842 0.2842 0.5000  plane waves:    1040
 k-point ** :   0.2684 0.2684 0.5000  plane waves:    1050
 k-point ** :   0.2526 0.2526 0.5000  plane waves:    1050
 k-point ** :   0.2368 0.2368 0.5000  plane waves:    1042
 k-point ** :   0.2211 0.2211 0.5000  plane waves:    1038
 k-point ** :   0.2053 0.2053 0.5000  plane waves:    1044
 k-point ** :   0.1895 0.1895 0.5000  plane waves:    1042
 k-point ** :   0.1737 0.1737 0.5000  plane waves:    1054
 k-point ** :   0.1579 0.1579 0.5000  plane waves:    1048
 k-point ** :   0.1421 0.1421 0.5000  plane waves:    1048
 k-point ** :   0.1263 0.1263 0.5000  plane waves:    1056
 k-point ** :   0.1105 0.1105 0.5000  plane waves:    1056
 k-point ** :   0.0947 0.0947 0.5000  plane waves:    1058
 k-point ** :   0.0789 0.0789 0.5000  plane waves:    1048
 k-point ** :   0.0632 0.0632 0.5000  plane waves:    1048
 k-point ** :   0.0474 0.0474 0.5000  plane waves:    1042
 k-point ** :   0.0316 0.0316 0.5000  plane waves:    1042
 k-point ** :   0.0158 0.0158 0.5000  plane waves:    1048
 k-point ** :   0.0000 0.0000 0.5000  plane waves:    1048

 maximum and minimum number of plane-waves per node :      1068     1020

 maximum number of plane-waves:      1068
 maximum index in each direction:
   IXMAX=    4   IYMAX=    4   IZMAX=   13
   IXMIN=   -5   IYMIN=   -4   IZMIN=  -14

 serial   3D FFT for wavefunctions
 parallel 3D FFT for charge:
    minimum data exchange during FFTs selected (reduces bandwidth)

 initial charge density was supplied:
 number of electron       8.0000000 magnetization
 keeping initial charge density in first step

 Maximum index for augmentation-charges         1246 (set IRDMAX)

 First call to EWALD:  gamma=   0.513
 Maximum number of real-space cells 4x 4x 2
 Maximum number of reciprocal cells 2x 2x 5

--------------------------------------- Iteration      1(   1)  ---------------------------------------

 eigenvalue-minimisations  :  6520
 total energy-change (2. order) :-0.1598334E+02  (-0.2438287E+02)
 number of electron       8.0000000 magnetization
 augmentation part        8.0000000 magnetization

 Free energy of the ion-electron system (eV)
  alpha Z        PSCENC =         8.64846017
  Ewald energy   TEWEN  =       121.23345169
  -Hartree energ DENC   =      -435.83891711
  -exchange      EXHF   =         0.00000000
  -V(xc)+E(xc)   XCENC  =        28.32364994
  PAW double counting   =       925.43029887     -926.16060211
  entropy T*S    EENTRO =        -0.00000000
  eigenvalues    EBANDS =       -73.32364671
  atomic energy  EATOM  =       335.70396624
  Solvation  Ediel_sol  =         0.00000000
  free energy    TOTEN  =       -15.98333901 eV

  energy without entropy =      -15.98333901  energy(sigma->0) =      -15.98333901

[...]

--------------------------------------- Iteration      1(   3)  ---------------------------------------

 eigenvalue-minimisations  :  8340
 total energy-change (2. order) :-0.4175832E-04  (-0.4175833E-04)
 number of electron       8.0000000 magnetization
 augmentation part        8.0000000 magnetization

 Free energy of the ion-electron system (eV)
  alpha Z        PSCENC =         8.64846017
  Ewald energy   TEWEN  =       121.23345169
  -Hartree energ DENC   =      -435.83891711
  -exchange      EXHF   =         0.00000000
  -V(xc)+E(xc)   XCENC  =        28.32364994
  PAW double counting   =       925.43029887     -926.16060211
  entropy T*S    EENTRO =        -0.00000000
  eigenvalues    EBANDS =       -73.44236612
  atomic energy  EATOM  =       335.70396624
  Solvation  Ediel_sol  =         0.00000000
  free energy    TOTEN  =       -16.10205842 eV

  energy without entropy =      -16.10205842  energy(sigma->0) =      -16.10205842

 average (electrostatic) potential at core
  the test charge radii are     0.7672  0.7089
  (the norm of the test charge is              1.0000)
       1 -33.5715       2 -69.4738

 E-fermi :  -2.2160     XC(G=0):  -5.4337     alpha+bet : -4.8091

 k-point     1 :       0.0000    0.0000    0.0000
  band No.  band energies     occupation
      1     -19.8673      2.00000
      2      -7.4564      2.00000
      3      -3.6050      2.00000
      4      -3.6049      2.00000
      5       2.0573      0.00000
      6       5.2089      0.00000
      7       6.8167      0.00000
      8       9.2572      0.00000
      9       9.2572      0.00000
     10      10.7658      0.00000
     11      11.8364      0.00000
     12      17.2516      0.00000
     13      20.4396      0.00000
     14      23.2649      0.00000
     15      27.3841      0.00000
     16      27.3841      0.00000
     17      29.1674      0.00000
     18      30.4354      0.00000
     19      30.4355      0.00000
     20      33.0657      0.00000

[...]

 k-point   140 :       0.0000    0.0000    0.5000
  band No.  band energies     occupation
      1     -19.8673      2.00000
      2      -7.4594      2.00000
      3      -3.6052      2.00000
      4      -3.6052      2.00000
      5       3.0412      0.00000
      6       3.1336      0.00000
      7       8.9025      0.00000
      8       9.2570      0.00000
      9       9.2570      0.00000
     10      10.0265      0.00000
     11      12.5575      0.00000
     12      14.5727      0.00000
     13      23.0832      0.00000
     14      23.7763      0.00000
     15      27.3665      0.00000
     16      27.3665      0.00000
     17      28.6347      0.00000
     18      30.3486      0.00000
     19      30.3487      0.00000
     20      31.5769      0.00000

 soft charge-density along one line, spin component           1
         0         1         2         3         4         5         6         7         8         9
 total charge-density along one line

------------------------ aborting loop because EDIFF is reached ----------------------------------------

 total charge

# of ion       s       p       d       tot
    1        0.696   1.408   0.000   2.104
    2        1.179   2.898   0.000   4.076
tot          1.874   4.306   0.000   6.180

  FORCE on cell =-STRESS in cart. coord.  units (eV):
  Direction    XX          YY          ZZ          XY          YZ          ZX
  Alpha Z     8.64846     8.64846     8.64846
  Ewald     392.78745   392.78745  -664.34157    -0.00000     0.00000    -0.00000
  Hartree   408.25956   408.25956  -377.66957    -0.00000    -0.00000     0.00000
  E(xc)     -31.53773   -31.53773   -32.47645    -0.00000     0.00000     0.00000
  Local    -892.23144  -892.23095   938.32610     0.00000    -0.00000    -0.00006
  n-local   -17.72909   -17.30005   -16.34165     0.05855    -0.00000     0.00000
  augment     1.20062     1.20055     1.23470     0.00000     0.00000    -0.00000
  Kinetic   133.18766   131.60592   144.52210     0.52502     0.00000     0.00000
  Fock        0.00000     0.00000     0.00000     0.00000     0.00000     0.00000
  Total       2.00935     2.00935     1.90211    -0.00000     0.00000     0.00000
  in kB      78.24234    78.24234    74.06653    -0.00000     0.00000     0.00000

 VOLUME and BASIS-vectors are now :
  energy-cutoff  :      500.00
  volume of cell :       41.15
      direct lattice vectors                 reciprocal lattice vectors
     1.256237318 -2.175866861  0.000000000     0.398013968 -0.229793472  0.000000000
     1.256237318  2.175866861  0.000000000     0.398013968  0.229793472  0.000000000
     0.000000000  0.000000000  7.526459174     0.000000000  0.000000000  0.132864602

  length of vectors
     2.512474636  2.512474636  7.526459174     0.459586943  0.459586943  0.132864602

 FORCES acting on ions
    electron-ion (+dipol)            ewald-force                    non-local-force                 convergence-correction
   0.184E-13 -.181E-04 -.247E-14   0.462E-14 -.651E-11 0.610E-19   0.000E+00 0.000E+00 0.000E+00   0.656E-14 0.297E-04 0.210E-12
   -.173E-13 -.112E-05 -.125E-11   -.366E-14 0.651E-11 -.610E-19   -.104E-16 0.486E-16 0.000E+00   -.751E-13 -.307E-03 0.576E-12
   0.101E-14 -.192E-04 -.125E-11   0.955E-15 0.101E-14 0.000E+00   -.104E-16 0.486E-16 0.000E+00   -.685E-13 -.277E-03 0.786E-12

 POSITION                                       TOTAL-FORCE (eV/Angst)
      0.00000      0.00000      0.00000        -0.000000      0.000000      0.000000
      1.25624      0.72529      0.00000         0.000000     -0.000000      0.000000
    total drift:                               -0.000000     -0.000296     -0.000000

  FREE ENERGIE OF THE ION-ELECTRON SYSTEM (eV)
  free  energy   TOTEN  =       -16.10205842 eV

  energy  without entropy=      -16.10205842  energy(sigma->0) =      -16.10205842

 writing wavefunctions

 total charge

# of ion       s       p       d       tot
    1        0.696   1.408   0.000   2.104
    2        1.179   2.898   0.000   4.076
tot          1.874   4.306   0.000   6.180