 vasp.5.4.4.18Apr17-6-g9f103f2a35 (build May 10 2019 17:57:18) complex

 executed on             LinuxIFC date 2024.07.16  00:28:47

 INCAR:
 POTCAR:    PAW_PBE B 06Sep2000
 POTCAR:    PAW_PBE N 08Apr2002

   TITEL  = PAW_PBE B 06Sep2000
   POMASS =   10.811; ZVAL   =    3.000    mass and valenz
   ENMAX  =  318.614; ENMIN  =  238.960 eV

   TITEL  = PAW_PBE N 08Apr2002
   POMASS =   14.001; ZVAL   =    5.000    mass and valenz
   ENMAX  =  400.000; ENMIN  =  300.000 eV

  PAW_PBE B 06Sep2000                   :
  PAW_PBE N 08Apr2002                   :

 POSCAR: B2 N2
  positions in direct lattice
  velocities in cartesian coordinates
 exchange correlation table for  LEXCH =        8
   RHO(1)=    0.500       N(1)  =     2000
   RHO(2)=  100.500       N(2)  =     4000

 ion  position               nearest neighbor table
   1  0.000  0.000  0.000-   3 1.45   3 1.45   3 1.45
   2  0.333  0.667  0.500-   4 1.45   4 1.45   4 1.45
   3  0.333  0.667  0.000-   1 1.45   1 1.45   1 1.45
   4  0.667  0.333  0.500-   2 1.45   2 1.45   2 1.45

  LATTYP: Found a hexagonal cell.
 ALAT       =     2.5124746362
 C/A-ratio  =     2.9956358826

  Lattice vectors:

 A1 = (   1.2562373181,  -2.1758668613,   0.0000000000)
 A2 = (   1.2562373181,   2.1758668613,   0.0000000000)
 A3 = (   0.0000000000,   0.0000000000,   7.5264591742)

Analysis of symmetry for initial positions (statically):
 Subroutine PRICEL returns:
 Original cell was already a primitive cell.

 Routine SETGRP: Setting up the symmetry group for a
 hexagonal supercell.

 Subroutine GETGRP returns: Found 12 space group operations
 (whereof 12 operations were pure point group operations)
 out of a pool of 24 trial point group operations.

The static configuration has the point symmetry D_3h.

Analysis of symmetry for dynamics (positions and initial velocities):
 Subroutine PRICEL returns:
 Original cell was already a primitive cell.

 Routine SETGRP: Setting up the symmetry group for a
 hexagonal supercell.

 Subroutine GETGRP returns: Found 12 space group operations
 (whereof 12 operations were pure point group operations)
 out of a pool of 24 trial point group operations.

The dynamic configuration has the point symmetry D_3h.

 Subroutine INISYM returns: Found 12 space group operations
 (whereof 12 operations are pure point group operations),
 and found     1 'primitive' translations

 KPOINTS: A

Automatic generation of k-mesh.
Space group operators:
 irot       det(A)        alpha          n_x          n_y          n_z        tau_x        tau_y        tau_z
    1     1.000000     0.000000     1.000000     0.000000     0.000000     0.000000     0.000000     0.000000
    2    -1.000000    60.000000     0.000000     0.000000    -1.000000     0.000000     0.000000     0.000000
    3     1.000000   120.000000     0.000000     0.000000    -1.000000     0.000000     0.000000     0.000000
    4    -1.000000   180.000000     0.000000     0.000000     1.000000     0.000000     0.000000     0.000000
    5     1.000000   120.000000     0.000000     0.000000     1.000000     0.000000     0.000000     0.000000
    6    -1.000000    60.000000     0.000000     0.000000     1.000000     0.000000     0.000000     0.000000
    7    -1.000000   180.000000     0.500000    -0.866025     0.000000     0.000000     0.000000     0.000000
    8     1.000000   180.000000     0.000000     1.000000     0.000000     0.000000     0.000000     0.000000
    9    -1.000000   180.000000    -0.500000    -0.866025     0.000000     0.000000     0.000000     0.000000
   10     1.000000   180.000000     0.866025     0.500000     0.000000     0.000000     0.000000     0.000000
   11    -1.000000   180.000000     1.000000     0.000000     0.000000     0.000000     0.000000     0.000000
   12     1.000000   180.000000     0.866025    -0.500000     0.000000     0.000000     0.000000     0.000000

 Subroutine IBZKPT returns following result:

 Found    918 irreducible k-points:

 Following reciprocal coordinates:
            Coordinates               Weight
  0.000000  0.000000  0.000000      1.000000
  0.031250  0.000000  0.000000      6.000000
  0.062500  0.000000  0.000000      6.000000
  0.093750  0.000000  0.000000      6.000000
  0.125000  0.000000  0.000000      6.000000
  0.156250  0.000000  0.000000      6.000000
  0.187500  0.000000  0.000000      6.000000
  0.218750  0.000000  0.000000      6.000000
  0.250000  0.000000  0.000000      6.000000
  0.281250  0.000000  0.000000      6.000000
  0.312500  0.000000  0.000000      6.000000
  0.343750  0.000000  0.000000      6.000000
  0.375000  0.000000  0.000000      6.000000
  0.406250  0.000000  0.000000      6.000000
  0.437500  0.000000  0.000000      6.000000
  0.468750  0.000000  0.000000      6.000000
  0.500000  0.000000  0.000000      3.000000
  0.031250  0.031250  0.000000      6.000000
  0.062500  0.031250  0.000000     12.000000
  0.093750  0.031250  0.000000     12.000000
  0.125000  0.031250  0.000000     12.000000
  0.156250  0.031250  0.000000     12.000000
  0.187500  0.031250  0.000000     12.000000
  0.218750  0.031250  0.000000     12.000000
  0.250000  0.031250  0.000000     12.000000
  0.281250  0.031250  0.000000     12.000000
  0.312500  0.031250  0.000000     12.000000
  0.343750  0.031250  0.000000     12.000000
  0.375000  0.031250  0.000000     12.000000
  0.406250  0.031250  0.000000     12.000000
  0.437500  0.031250  0.000000     12.000000
  0.468750  0.031250  0.000000     12.000000
  0.062500  0.062500  0.000000      6.000000
  0.093750  0.062500  0.000000     12.000000
  0.125000  0.062500  0.000000     12.000000
  0.156250  0.062500  0.000000     12.000000
  0.187500  0.062500  0.000000     12.000000
  0.218750  0.062500  0.000000     12.000000
  0.250000  0.062500  0.000000     12.000000
  0.281250  0.062500  0.000000     12.000000
  0.312500  0.062500  0.000000     12.000000
  0.343750  0.062500  0.000000     12.000000
  0.375000  0.062500  0.000000     12.000000
  0.406250  0.062500  0.000000     12.000000
  0.437500  0.062500  0.000000     12.000000
  0.468750  0.062500  0.000000      6.000000
  0.093750  0.093750  0.000000      6.000000
  0.125000  0.093750  0.000000     12.000000
  0.156250  0.093750  0.000000     12.000000
  0.187500  0.093750  0.000000     12.000000
  0.218750  0.093750  0.000000     12.000000
  0.250000  0.093750  0.000000     12.000000
  0.281250  0.093750  0.000000     12.000000
  0.312500  0.093750  0.000000     12.000000
  0.343750  0.093750  0.000000     12.000000
  0.375000  0.093750  0.000000     12.000000
  0.406250  0.093750  0.000000     12.000000
  0.437500  0.093750  0.000000     12.000000
  0.125000  0.125000  0.000000      6.000000
  0.156250  0.125000  0.000000     12.000000
[...]
  0.250000  0.218750  0.500000     12.000000
  0.281250  0.218750  0.500000     12.000000
  0.312500  0.218750  0.500000     12.000000
  0.343750  0.218750  0.500000     12.000000
  0.375000  0.218750  0.500000     12.000000
  0.250000  0.250000  0.500000      6.000000
  0.281250  0.250000  0.500000     12.000000
  0.312500  0.250000  0.500000     12.000000
  0.343750  0.250000  0.500000     12.000000
  0.375000  0.250000  0.500000      6.000000
  0.281250  0.281250  0.500000      6.000000
  0.312500  0.281250  0.500000     12.000000
  0.343750  0.281250  0.500000     12.000000
  0.312500  0.312500  0.500000      6.000000
  0.343750  0.312500  0.500000      6.000000

 Following cartesian coordinates:
            Coordinates               Weight
  0.000000  0.000000  0.000000      1.000000
  0.012438 -0.007181  0.000000      6.000000
  0.024876 -0.014362  0.000000      6.000000
  0.037314 -0.021543  0.000000      6.000000
  0.049752 -0.028724  0.000000      6.000000
  0.062190 -0.035905  0.000000      6.000000
  0.074628 -0.043086  0.000000      6.000000
  0.087066 -0.050267  0.000000      6.000000
  0.099503 -0.057448  0.000000      6.000000
  0.111941 -0.064629  0.000000      6.000000
  0.124379 -0.071810  0.000000      6.000000
  0.136817 -0.078992  0.000000      6.000000
  0.149255 -0.086173  0.000000      6.000000
  0.161693 -0.093354  0.000000      6.000000
  0.174131 -0.100535  0.000000      6.000000
  0.186569 -0.107716  0.000000      6.000000
  0.199007 -0.114897  0.000000      3.000000
  0.024876  0.000000  0.000000      6.000000
  0.037314 -0.007181  0.000000     12.000000
  0.049752 -0.014362  0.000000     12.000000
  0.062190 -0.021543  0.000000     12.000000
  0.074628 -0.028724  0.000000     12.000000
  0.087066 -0.035905  0.000000     12.000000
  0.099503 -0.043086  0.000000     12.000000
  0.111941 -0.050267  0.000000     12.000000
  0.124379 -0.057448  0.000000     12.000000
  0.136817 -0.064629  0.000000     12.000000
  0.149255 -0.071810  0.000000     12.000000
  0.161693 -0.078992  0.000000     12.000000
  0.174131 -0.086173  0.000000     12.000000
  0.186569 -0.093354  0.000000     12.000000
  0.199007 -0.100535  0.000000     12.000000
  0.049752  0.000000  0.000000      6.000000
  0.062190 -0.007181  0.000000     12.000000
  0.074628 -0.014362  0.000000     12.000000
  0.087066 -0.021543  0.000000     12.000000
  0.099503 -0.028724  0.000000     12.000000
  0.111941 -0.035905  0.000000     12.000000
  0.124379 -0.043086  0.000000     12.000000
  0.136817 -0.050267  0.000000     12.000000
  0.149255 -0.057448  0.000000     12.000000
  0.161693 -0.064629  0.000000     12.000000
  0.174131 -0.071810  0.000000     12.000000
  0.186569 -0.078992  0.000000     12.000000
  0.199007 -0.086173  0.000000     12.000000
  0.211445 -0.093354  0.000000      6.000000
  0.074628  0.000000  0.000000      6.000000
  0.087066 -0.007181  0.000000     12.000000
  0.099503 -0.014362  0.000000     12.000000
  0.111941 -0.021543  0.000000     12.000000
  0.124379 -0.028724  0.000000     12.000000
  0.136817 -0.035905  0.000000     12.000000
  0.149255 -0.043086  0.000000     12.000000
  0.161693 -0.050267  0.000000     12.000000
  0.174131 -0.057448  0.000000     12.000000
  0.186569 -0.064629  0.000000     12.000000
  0.199007 -0.071810  0.000000     12.000000
  0.211445 -0.078992  0.000000     12.000000
  0.099503  0.000000  0.000000      6.000000
  0.111941 -0.007181  0.000000     12.000000
[...]
  0.186569 -0.007181  0.066432     12.000000
  0.199007 -0.014362  0.066432     12.000000
  0.211445 -0.021543  0.066432     12.000000
  0.223883 -0.028724  0.066432     12.000000
  0.236321 -0.035905  0.066432     12.000000
  0.199007  0.000000  0.066432      6.000000
  0.211445 -0.007181  0.066432     12.000000
  0.223883 -0.014362  0.066432     12.000000
  0.236321 -0.021543  0.066432     12.000000
  0.248759 -0.028724  0.066432      6.000000
  0.223883  0.000000  0.066432      6.000000
  0.236321 -0.007181  0.066432     12.000000
  0.248759 -0.014362  0.066432     12.000000
  0.248759  0.000000  0.066432      6.000000
  0.261197 -0.007181  0.066432      6.000000

 SYSTEM =  BiFeO3
 POSCAR =  B2 N2

 Startparameter for this run:
   NWRITE =      2    write-flag & timer
   PREC   = normal    normal or accurate (medium, high low for compatibility)
   ISTART =      1    job   : 0-new  1-cont  2-samecut
   ICHARG =     11    charge: 1-file 2-atom 10-const
[...]
 k-point  8 :   0.2188 0.0000 0.0000  plane waves:    1064
 k-point  9 :   0.2500 0.0000 0.0000  plane waves:    1062
 k-point 10 :   0.2812 0.0000 0.0000  plane waves:    1052
 k-point 11 :   0.3125 0.0000 0.0000  plane waves:    1060
 k-point 12 :   0.3438 0.0000 0.0000  plane waves:    1056
 k-point 13 :   0.3750 0.0000 0.0000  plane waves:    1040
 k-point 14 :   0.4062 0.0000 0.0000  plane waves:    1044
 k-point 15 :   0.4375 0.0000 0.0000  plane waves:    1038
 k-point 16 :   0.4688 0.0000 0.0000  plane waves:    1034
 k-point 17 :   0.5000 0.0000 0.0000  plane waves:    1032
 k-point 18 :   0.0312 0.0312 0.0000  plane waves:    1061
 k-point 19 :   0.0625 0.0313 0.0000  plane waves:    1065
 k-point 20 :   0.0938 0.0312 0.0000  plane waves:    1061
 k-point 21 :   0.1250 0.0312 0.0000  plane waves:    1062
 k-point 22 :   0.1562 0.0313 0.0000  plane waves:    1060
 k-point 23 :   0.1875 0.0313 0.0000  plane waves:    1056
 k-point 24 :   0.2188 0.0312 0.0000  plane waves:    1058
 k-point 25 :   0.2500 0.0312 0.0000  plane waves:    1060
 k-point 26 :   0.2812 0.0313 0.0000  plane waves:    1054
 k-point 27 :   0.3125 0.0313 0.0000  plane waves:    1062
 k-point 28 :   0.3438 0.0313 0.0000  plane waves:    1054
 k-point 29 :   0.3750 0.0313 0.0000  plane waves:    1040
 k-point 30 :   0.4062 0.0313 0.0000  plane waves:    1039
 k-point 31 :   0.4375 0.0313 0.0000  plane waves:    1038
 k-point 32 :   0.4688 0.0312 0.0000  plane waves:    1032
 k-point 33 :   0.0625 0.0625 0.0000  plane waves:    1059
 k-point 34 :   0.0938 0.0625 0.0000  plane waves:    1059
 k-point 35 :   0.1250 0.0625 0.0000  plane waves:    1055
 k-point 36 :   0.1562 0.0625 0.0000  plane waves:    1056
 k-point 37 :   0.1875 0.0625 0.0000  plane waves:    1056
 k-point 38 :   0.2188 0.0625 0.0000  plane waves:    1054
 k-point 39 :   0.2500 0.0625 0.0000  plane waves:    1054
 k-point 40 :   0.2812 0.0625 0.0000  plane waves:    1056
 k-point 41 :   0.3125 0.0625 0.0000  plane waves:    1054
 k-point 42 :   0.3438 0.0625 0.0000  plane waves:    1045
 k-point 43 :   0.3750 0.0625 0.0000  plane waves:    1039
 k-point 44 :   0.4062 0.0625 0.0000  plane waves:    1035
 k-point 45 :   0.4375 0.0625 0.0000  plane waves:    1038
 k-point 46 :   0.4688 0.0625 0.0000  plane waves:    1030
 k-point 47 :   0.0938 0.0938 0.0000  plane waves:    1059
 k-point 48 :   0.1250 0.0938 0.0000  plane waves:    1059
 k-point 49 :   0.1562 0.0938 0.0000  plane waves:    1057
 k-point 50 :   0.1875 0.0938 0.0000  plane waves:    1056
 k-point 51 :   0.2188 0.0938 0.0000  plane waves:    1056
 k-point 52 :   0.2500 0.0938 0.0000  plane waves:    1052
 k-point 53 :   0.2812 0.0938 0.0000  plane waves:    1056
 k-point 54 :   0.3125 0.0938 0.0000  plane waves:    1045
 k-point 55 :   0.3438 0.0938 0.0000  plane waves:    1038
 k-point 56 :   0.3750 0.0938 0.0000  plane waves:    1033
 k-point 57 :   0.4062 0.0938 0.0000  plane waves:    1037
 k-point 58 :   0.4375 0.0938 0.0000  plane waves:    1042
 k-point 59 :   0.1250 0.1250 0.0000  plane waves:    1053
 k-point 60 :   0.1562 0.1250 0.0000  plane waves:    1053
[...]
 k-point 85 :   0.3750 0.1875 0.0000  plane waves:    1039
 k-point 86 :   0.4062 0.1875 0.0000  plane waves:    1042
 k-point 87 :   0.2188 0.2188 0.0000  plane waves:    1029
 k-point 88 :   0.2500 0.2188 0.0000  plane waves:    1035
 k-point 89 :   0.2812 0.2188 0.0000  plane waves:    1031
 k-point 90 :   0.3125 0.2188 0.0000  plane waves:    1030
 k-point 91 :   0.3438 0.2188 0.0000  plane waves:    1034
 k-point 92 :   0.3750 0.2188 0.0000  plane waves:    1034
 k-point 93 :   0.2500 0.2500 0.0000  plane waves:    1025
 k-point 94 :   0.2813 0.2500 0.0000  plane waves:    1027
 k-point 95 :   0.3125 0.2500 0.0000  plane waves:    1026
 k-point 96 :   0.3438 0.2500 0.0000  plane waves:    1027
 k-point 97 :   0.3750 0.2500 0.0000  plane waves:    1024
 k-point 98 :   0.2812 0.2812 0.0000  plane waves:    1025
 k-point 99 :   0.3125 0.2812 0.0000  plane waves:    1024
 k-point ** :   0.3438 0.2812 0.0000  plane waves:    1028
 k-point ** :   0.3125 0.3125 0.0000  plane waves:    1026
 k-point ** :   0.3438 0.3125 0.0000  plane waves:    1030
 k-point ** :   0.0000 0.0000 0.0625  plane waves:    1047
 k-point ** :   0.0312 0.0000 0.0625  plane waves:    1047
 k-point ** :   0.0625 0.0000 0.0625  plane waves:    1057
 k-point ** :   0.0938 0.0000 0.0625  plane waves:    1067
 k-point ** :   0.1250 0.0000 0.0625  plane waves:    1061
 k-point ** :   0.1562 0.0000 0.0625  plane waves:    1060
 k-point ** :   0.1875 0.0000 0.0625  plane waves:    1062
 k-point ** :   0.2188 0.0000 0.0625  plane waves:    1062
 k-point ** :   0.2500 0.0000 0.0625  plane waves:    1061
 k-point ** :   0.2812 0.0000 0.0625  plane waves:    1054
 k-point ** :   0.3125 0.0000 0.0625  plane waves:    1060
 k-point ** :   0.3438 0.0000 0.0625  plane waves:    1058
 k-point ** :   0.3750 0.0000 0.0625  plane waves:    1043
 k-point ** :   0.4062 0.0000 0.0625  plane waves:    1035
 k-point ** :   0.4375 0.0000 0.0625  plane waves:    1039
 k-point ** :   0.4688 0.0000 0.0625  plane waves:    1036
 k-point ** :   0.5000 0.0000 0.0625  plane waves:    1032
 k-point ** :   0.0312 0.0312 0.0625  plane waves:    1060
 k-point ** :   0.0625 0.0313 0.0625  plane waves:    1064
 k-point ** :   0.0938 0.0312 0.0625  plane waves:    1060
 k-point ** :   0.1250 0.0312 0.0625  plane waves:    1060
 k-point ** :   0.1562 0.0313 0.0625  plane waves:    1058
 k-point ** :   0.1875 0.0313 0.0625  plane waves:    1058
 k-point ** :   0.2188 0.0312 0.0625  plane waves:    1060
 k-point ** :   0.2500 0.0312 0.0625  plane waves:    1058
 k-point ** :   0.2812 0.0313 0.0625  plane waves:    1054
 k-point ** :   0.3125 0.0313 0.0625  plane waves:    1058
 k-point ** :   0.3438 0.0313 0.0625  plane waves:    1049
 k-point ** :   0.3750 0.0313 0.0625  plane waves:    1044
 k-point ** :   0.4062 0.0313 0.0625  plane waves:    1039
 k-point ** :   0.4375 0.0313 0.0625  plane waves:    1038
 k-point ** :   0.4688 0.0312 0.0625  plane waves:    1033
 k-point ** :   0.0625 0.0625 0.0625  plane waves:    1060
 k-point ** :   0.0938 0.0625 0.0625  plane waves:    1056
 k-point ** :   0.1250 0.0625 0.0625  plane waves:    1058
 k-point ** :   0.1562 0.0625 0.0625  plane waves:    1057
 k-point ** :   0.1875 0.0625 0.0625  plane waves:    1057
 k-point ** :   0.2188 0.0625 0.0625  plane waves:    1056
 k-point ** :   0.2500 0.0625 0.0625  plane waves:    1056
 k-point ** :   0.2812 0.0625 0.0625  plane waves:    1055
 k-point ** :   0.3125 0.0625 0.0625  plane waves:    1050
 k-point ** :   0.3438 0.0625 0.0625  plane waves:    1045
 k-point ** :   0.3750 0.0625 0.0625  plane waves:    1041
 k-point ** :   0.4062 0.0625 0.0625  plane waves:    1036
 k-point ** :   0.4375 0.0625 0.0625  plane waves:    1038
 k-point ** :   0.4688 0.0625 0.0625  plane waves:    1036
 k-point ** :   0.0938 0.0938 0.0625  plane waves:    1060
 k-point ** :   0.1250 0.0938 0.0625  plane waves:    1058
 k-point ** :   0.1562 0.0938 0.0625  plane waves:    1057
 k-point ** :   0.1875 0.0938 0.0625  plane waves:    1054
 k-point ** :   0.2188 0.0938 0.0625  plane waves:    1057
 k-point ** :   0.2500 0.0938 0.0625  plane waves:    1055
 k-point ** :   0.2812 0.0938 0.0625  plane waves:    1052
 k-point ** :   0.3125 0.0938 0.0625  plane waves:    1043
 k-point ** :   0.3438 0.0938 0.0625  plane waves:    1038
 k-point ** :   0.3750 0.0938 0.0625  plane waves:    1034
 k-point ** :   0.4062 0.0938 0.0625  plane waves:    1039
[...]
 k-point ** :   0.2500 0.2188 0.5000  plane waves:    1040
 k-point ** :   0.2812 0.2188 0.5000  plane waves:    1040
 k-point ** :   0.3125 0.2188 0.5000  plane waves:    1036
 k-point ** :   0.3438 0.2188 0.5000  plane waves:    1042
 k-point ** :   0.3750 0.2188 0.5000  plane waves:    1042
 k-point ** :   0.2500 0.2500 0.5000  plane waves:    1048
 k-point ** :   0.2813 0.2500 0.5000  plane waves:    1048
 k-point ** :   0.3125 0.2500 0.5000  plane waves:    1038
 k-point ** :   0.3438 0.2500 0.5000  plane waves:    1042
 k-point ** :   0.3750 0.2500 0.5000  plane waves:    1044
 k-point ** :   0.2812 0.2812 0.5000  plane waves:    1036
 k-point ** :   0.3125 0.2812 0.5000  plane waves:    1036
 k-point ** :   0.3438 0.2812 0.5000  plane waves:    1048
 k-point ** :   0.3125 0.3125 0.5000  plane waves:    1042
 k-point ** :   0.3438 0.3125 0.5000  plane waves:    1038

 maximum and minimum number of plane-waves per node :      1067     1020

 maximum number of plane-waves:      1067
 maximum index in each direction:
   IXMAX=    4   IYMAX=    4   IZMAX=   13
   IXMIN=   -5   IYMIN=   -4   IZMIN=  -14

 serial   3D FFT for wavefunctions
 parallel 3D FFT for charge:
    minimum data exchange during FFTs selected (reduces bandwidth)

 initial charge density was supplied:
 number of electron      15.9999999 magnetization
 keeping initial charge density in first step

 Maximum index for augmentation-charges         1246 (set IRDMAX)

 First call to EWALD:  gamma=   0.513
 Maximum number of real-space cells 4x 4x 2
 Maximum number of reciprocal cells 2x 2x 5

--------------------------------------- Iteration      1(   1)  ---------------------------------------

 eigenvalue-minimisations  : 43280
 total energy-change (2. order) :-0.3494974E+02  (-0.2947919E+02)
 number of electron      15.9999999 magnetization
 augmentation part       15.9999999 magnetization

 Free energy of the ion-electron system (eV)
  alpha Z        PSCENC =        34.59384069
  Ewald energy   TEWEN  =      -421.88703305
  -Hartree energ DENC   =      -281.52026677
  -exchange      EXHF   =         0.00000000
  -V(xc)+E(xc)   XCENC  =        56.67703550
  PAW double counting   =      1850.55118212    -1852.01157871
  entropy T*S    EENTRO =        -0.00000000
  eigenvalues    EBANDS =       -92.76085133
  atomic energy  EATOM  =       671.40793249
  Solvation  Ediel_sol  =         0.00000000
  free energy    TOTEN  =       -34.94973906 eV

  energy without entropy =      -34.94973906  energy(sigma->0) =      -34.94973906

[...]

--------------------------------------- Iteration      1(   4)  ---------------------------------------

 eigenvalue-minimisations  : 39580
 total energy-change (2. order) :-0.3804143E-07  (-0.3804155E-07)
 number of electron      15.9999999 magnetization
 augmentation part       15.9999999 magnetization

 Free energy of the ion-electron system (eV)
  alpha Z        PSCENC =        34.59384069
  Ewald energy   TEWEN  =      -421.88703305
  -Hartree energ DENC   =      -281.52026677
  -exchange      EXHF   =         0.00000000
  -V(xc)+E(xc)   XCENC  =        56.67703550
  PAW double counting   =      1850.55118212    -1852.01157871
  entropy T*S    EENTRO =        -0.00000000
  eigenvalues    EBANDS =       -93.00554990
  atomic energy  EATOM  =       671.40793249
  Solvation  Ediel_sol  =         0.00000000
  free energy    TOTEN  =       -35.19443763 eV

  energy without entropy =      -35.19443763  energy(sigma->0) =      -35.19443763

 average (electrostatic) potential at core
  the test charge radii are     0.7672  0.7089
  (the norm of the test charge is              1.0000)
       1 -30.0304       2 -30.0004       3 -65.9328       4 -65.8976

 E-fermi :   1.5721     XC(G=0):  -9.2328     alpha+bet : -9.6182

 k-point     1 :       0.0000    0.0000    0.0000
  band No.  band energies     occupation
      1     -16.3669      2.00000
      2     -16.2569      2.00000
      3      -4.4312      2.00000
      4      -3.3249      2.00000
      5      -0.0640      2.00000
      6      -0.0640      2.00000
      7      -0.0317      2.00000
      8      -0.0317      2.00000
      9       5.9564      0.00000
     10      10.1146      0.00000
     11      12.4665      0.00000
     12      12.7936      0.00000
     13      12.7936      0.00000
     14      12.8328      0.00000
     15      12.8329      0.00000
     16      14.0020      0.00000
     17      15.2973      0.00000
     18      16.1751      0.00000
     19      19.5843      0.00000
     20      25.6325      0.00000

[...]

 k-point   918 :       0.3438    0.3125    0.5000
  band No.  band energies     occupation
      1     -12.7054      2.00000
      2     -12.6733      2.00000
      3      -6.5945      2.00000
      4      -6.5654      2.00000
      5      -5.8204      2.00000
      6      -5.7904      2.00000
      7       1.2582      2.00000
      8       1.2922      2.00000
      9       5.9244      0.00000
     10       5.9465      0.00000
     11      12.9833      0.00000
     12      13.4043      0.00000
     13      14.7647      0.00000
     14      16.1979      0.00000
     15      16.4540      0.00000
     16      16.6696      0.00000
     17      18.2182      0.00000
     18      19.1841      0.00000
     19      19.4319      0.00000
     20      20.9839      0.00000

 soft charge-density along one line, spin component           1
         0         1         2         3         4         5         6         7         8         9
 total charge-density along one line

------------------------ aborting loop because EDIFF is reached ----------------------------------------

 total charge

# of ion       s       p       d       tot
    1        0.740   1.413   0.000   2.154
    2        0.740   1.413   0.000   2.153
    3        1.225   2.786   0.000   4.011
    4        1.225   2.786   0.000   4.011
tot          3.930   8.399   0.000  12.329

  FORCE on cell =-STRESS in cart. coord.  units (eV):
  Direction    XX          YY          ZZ          XY          YZ          ZX
  Alpha Z    34.59384    34.59384    34.59384
  Ewald     121.29472   121.29472  -664.47690    -0.00000    -0.00000    -0.00000
  Hartree   223.91300   223.91300  -166.30969     0.00000    -0.00000     0.00000
  E(xc)     -63.11195   -63.11195   -64.94241    -0.00000    -0.00000     0.00000
  Local    -544.55878  -544.55804   600.44934     0.00000     0.00000    -0.00010
  n-local   -30.93524   -29.23666   -29.93956     0.08979    -0.00505     0.01817
  augment     2.16973     2.16960     2.52408     0.00000     0.00000    -0.00000
  Kinetic   258.81837   252.80031   288.18370     2.58382     0.05238    -0.17861
  Fock        0.00000     0.00000     0.00000     0.00000     0.00000     0.00000
  Total       0.02425     0.02425     0.08240    -0.00000     0.00000    -0.00000
  in kB       0.94433     0.94433     3.20848    -0.00000     0.00000    -0.00000

 VOLUME and BASIS-vectors are now :
  energy-cutoff  :      500.00
  volume of cell :       41.15
      direct lattice vectors                 reciprocal lattice vectors
     1.256237318 -2.175866861  0.000000000     0.398013968 -0.229793472  0.000000000
     1.256237318  2.175866861  0.000000000     0.398013968  0.229793472  0.000000000
     0.000000000  0.000000000  7.526459174     0.000000000  0.000000000  0.132864602

  length of vectors
     2.512474636  2.512474636  7.526459174     0.459586943  0.459586943  0.132864602

 FORCES acting on ions
    electron-ion (+dipol)            ewald-force                    non-local-force                 convergence-correction
   -.133E-13 -.120E-04 0.411E-14   0.466E-14 -.651E-11 -.139E-13   -.278E-16 0.555E-16 0.000E+00   0.773E-14 0.297E-04 -.436E-12
   0.640E-13 -.158E-04 -.243E-12   0.347E-14 0.130E-10 0.139E-13   -.278E-16 0.222E-15 0.000E+00   -.521E-14 -.385E-04 0.133E-11
   0.743E-13 -.665E-06 -.817E-12   -.352E-14 0.651E-11 -.231E-13   -.694E-17 -.694E-17 0.000E+00   -.723E-13 -.308E-03 -.427E-12
   0.443E-13 -.278E-05 -.359E-11   -.271E-14 -.130E-10 0.231E-13   -.694E-17 -.694E-17 0.000E+00   0.313E-13 0.338E-03 0.350E-11
   0.169E-12 -.312E-04 -.464E-11   0.191E-14 0.202E-14 0.000E+00   -.694E-16 0.264E-15 0.000E+00   -.385E-13 0.208E-04 0.397E-11

 POSITION                                       TOTAL-FORCE (eV/Angst)
      0.00000      0.00000      0.00000        -0.000000      0.000000      0.000000
      1.25624      0.72529      3.76323        -0.000000      0.000000      0.000000
      1.25624      0.72529      0.00000         0.000000     -0.000000      0.000000
      1.25624     -0.72529      3.76323        -0.000000      0.000000      0.000000
    total drift:                                0.000000     -0.000010     -0.000000

  FREE ENERGIE OF THE ION-ELECTRON SYSTEM (eV)
  free  energy   TOTEN  =       -35.19443763 eV

  energy  without entropy=      -35.19443763  energy(sigma->0) =      -35.19443763

 writing wavefunctions

 total charge

# of ion       s       p       d       tot
    1        0.740   1.413   0.000   2.154
    2        0.740   1.413   0.000   2.153
    3        1.225   2.786   0.000   4.011
    4        1.225   2.786   0.000   4.011
tot          3.930   8.399   0.000  12.329