 vasp.5.4.4.18Apr17-6-g9f103f2a35 (build May 10 2019 17:57:18) complex

 executed on             LinuxIFC date 2024.07.15  23:51:18

 INCAR:
 POTCAR:    PAW_PBE B 06Sep2000
 POTCAR:    PAW_PBE N 08Apr2002

   TITEL  = PAW_PBE B 06Sep2000
   POMASS =   10.811; ZVAL   =    3.000    mass and valenz
   ENMAX  =  318.614; ENMIN  =  238.960 eV

   TITEL  = PAW_PBE N 08Apr2002
   POMASS =   14.001; ZVAL   =    5.000    mass and valenz
   ENMAX  =  400.000; ENMIN  =  300.000 eV

  PAW_PBE B 06Sep2000                   :
  PAW_PBE N 08Apr2002                   :

 POSCAR: B2 N2
  positions in direct lattice
  velocities in cartesian coordinates
 exchange correlation table for  LEXCH =        8
   RHO(1)=    0.500       N(1)  =     2000
   RHO(2)=  100.500       N(2)  =     4000

 ion  position               nearest neighbor table
   1  0.000  0.000  0.000-   3 1.45   3 1.45   3 1.45
   2  0.333  0.667  0.500-   4 1.45   4 1.45   4 1.45
   3  0.333  0.667  0.000-   1 1.45   1 1.45   1 1.45
   4  0.667  0.333  0.500-   2 1.45   2 1.45   2 1.45

  LATTYP: Found a hexagonal cell.
 ALAT       =     2.5124746362
 C/A-ratio  =     2.9956358826

  Lattice vectors:

 A1 = (   1.2562373181,  -2.1758668613,   0.0000000000)
 A2 = (   1.2562373181,   2.1758668613,   0.0000000000)
 A3 = (   0.0000000000,   0.0000000000,   7.5264591742)

Analysis of symmetry for initial positions (statically):
 Subroutine PRICEL returns:
 Original cell was already a primitive cell.

 Routine SETGRP: Setting up the symmetry group for a
 hexagonal supercell.

 Subroutine GETGRP returns: Found 12 space group operations
 (whereof 12 operations were pure point group operations)
 out of a pool of 24 trial point group operations.

The static configuration has the point symmetry D_3h.

Analysis of symmetry for dynamics (positions and initial velocities):
 Subroutine PRICEL returns:
 Original cell was already a primitive cell.

 Routine SETGRP: Setting up the symmetry group for a
 hexagonal supercell.

 Subroutine GETGRP returns: Found 12 space group operations
 (whereof 12 operations were pure point group operations)
 out of a pool of 24 trial point group operations.

The dynamic configuration has the point symmetry D_3h.

 Subroutine INISYM returns: Found 12 space group operations
 (whereof 12 operations are pure point group operations),
 and found     1 'primitive' translations

 KPOINTS: A

Automatic generation of k-mesh.
Space group operators:
 irot       det(A)        alpha          n_x          n_y          n_z        tau_x        tau_y        tau_z
    1     1.000000     0.000000     1.000000     0.000000     0.000000     0.000000     0.000000     0.000000
    2    -1.000000    60.000000     0.000000     0.000000    -1.000000     0.000000     0.000000     0.000000
    3     1.000000   120.000000     0.000000     0.000000    -1.000000     0.000000     0.000000     0.000000
    4    -1.000000   180.000000     0.000000     0.000000     1.000000     0.000000     0.000000     0.000000
    5     1.000000   120.000000     0.000000     0.000000     1.000000     0.000000     0.000000     0.000000
    6    -1.000000    60.000000     0.000000     0.000000     1.000000     0.000000     0.000000     0.000000
    7    -1.000000   180.000000     0.500000    -0.866025     0.000000     0.000000     0.000000     0.000000
    8     1.000000   180.000000     0.000000     1.000000     0.000000     0.000000     0.000000     0.000000
    9    -1.000000   180.000000    -0.500000    -0.866025     0.000000     0.000000     0.000000     0.000000
   10     1.000000   180.000000     0.866025     0.500000     0.000000     0.000000     0.000000     0.000000
   11    -1.000000   180.000000     1.000000     0.000000     0.000000     0.000000     0.000000     0.000000
   12     1.000000   180.000000     0.866025    -0.500000     0.000000     0.000000     0.000000     0.000000

 Subroutine IBZKPT returns following result:

 Found     30 irreducible k-points:

 Following reciprocal coordinates:
            Coordinates               Weight
  0.000000  0.000000  0.000000      1.000000
  0.125000  0.000000  0.000000      6.000000
  0.250000  0.000000  0.000000      6.000000
  0.375000  0.000000  0.000000      6.000000
  0.500000  0.000000  0.000000      3.000000
  0.125000  0.125000  0.000000      6.000000
  0.250000  0.125000  0.000000     12.000000
  0.375000  0.125000  0.000000     12.000000
  0.250000  0.250000  0.000000      6.000000
  0.375000  0.250000  0.000000      6.000000
  0.000000  0.000000  0.250000      2.000000
  0.125000  0.000000  0.250000     12.000000
  0.250000  0.000000  0.250000     12.000000
  0.375000  0.000000  0.250000     12.000000
  0.500000  0.000000  0.250000      6.000000
  0.125000  0.125000  0.250000     12.000000
  0.250000  0.125000  0.250000     24.000000
  0.375000  0.125000  0.250000     24.000000
  0.250000  0.250000  0.250000     12.000000
  0.375000  0.250000  0.250000     12.000000
  0.000000  0.000000  0.500000      1.000000
  0.125000  0.000000  0.500000      6.000000
  0.250000  0.000000  0.500000      6.000000
  0.375000  0.000000  0.500000      6.000000
  0.500000  0.000000  0.500000      3.000000
  0.125000  0.125000  0.500000      6.000000
  0.250000  0.125000  0.500000     12.000000
  0.375000  0.125000  0.500000     12.000000
  0.250000  0.250000  0.500000      6.000000
  0.375000  0.250000  0.500000      6.000000

 Following cartesian coordinates:
            Coordinates               Weight
  0.000000  0.000000  0.000000      1.000000
  0.049752 -0.028724  0.000000      6.000000
  0.099503 -0.057448  0.000000      6.000000
  0.149255 -0.086173  0.000000      6.000000
  0.199007 -0.114897  0.000000      3.000000
  0.099503  0.000000  0.000000      6.000000
  0.149255 -0.028724  0.000000     12.000000
  0.199007 -0.057448  0.000000     12.000000
  0.199007  0.000000  0.000000      6.000000
  0.248759 -0.028724  0.000000      6.000000
  0.000000  0.000000  0.033216      2.000000
  0.049752 -0.028724  0.033216     12.000000
  0.099503 -0.057448  0.033216     12.000000
  0.149255 -0.086173  0.033216     12.000000
  0.199007 -0.114897  0.033216      6.000000
  0.099503  0.000000  0.033216     12.000000
  0.149255 -0.028724  0.033216     24.000000
  0.199007 -0.057448  0.033216     24.000000
  0.199007  0.000000  0.033216     12.000000
  0.248759 -0.028724  0.033216     12.000000
  0.000000  0.000000  0.066432      1.000000
  0.049752 -0.028724  0.066432      6.000000
  0.099503 -0.057448  0.066432      6.000000
  0.149255 -0.086173  0.066432      6.000000
  0.199007 -0.114897  0.066432      3.000000
  0.099503  0.000000  0.066432      6.000000
  0.149255 -0.028724  0.066432     12.000000
  0.199007 -0.057448  0.066432     12.000000
  0.199007  0.000000  0.066432      6.000000
  0.248759 -0.028724  0.066432      6.000000

 SYSTEM =  BN
 POSCAR =  B2 N2

 Startparameter for this run:
   NWRITE =      2    write-flag & timer
   PREC   = normal    normal or accurate (medium, high low for compatibility)
   ISTART =      0    job   : 0-new  1-cont  2-samecut
   ICHARG =      2    charge: 1-file 2-atom 10-const
   ISPIN  =      1    spin polarized calculation?
   LNONCOLLINEAR =      F non collinear calculations
   LSORBIT =      F    spin-orbit coupling
   INIWAV =      1    electr: 0-lowe 1-rand  2-diag
   LASPH  =      F    aspherical Exc in radial PAW
   METAGGA=      F    non-selfconsistent MetaGGA calc.

 Electronic Relaxation 1
   ENCUT  =  500.0 eV  36.75 Ry    6.06 a.u.   4.58  4.58 13.72*2*pi/ulx,y,z
   ENINI  =  500.0     initial cutoff
   ENAUG  =  627.1 eV  augmentation charge cutoff
   NELM   =     60;   NELMIN=  2; NELMDL= -5     # of ELM steps
   EDIFF  = 0.1E-03   stopping-criterion for ELM
   LREAL  =      F    real-space projection
   NLSPLINE    = F    spline interpolate recip. space projectors
   LCOMPAT=      F    compatible to vasp.4.4
   GGA_COMPAT  = T    GGA compatible to vasp.4.4-vasp.4.6
   LMAXPAW     = -100 max onsite density
   LMAXMIX     =    2 max onsite mixed and CHGCAR
   VOSKOWN=      0    Vosko Wilk Nusair interpolation
   ROPT   =    0.00000   0.00000
 Ionic relaxation
   EDIFFG = 0.1E-02   stopping-criterion for IOM
   NSW    =      0    number of steps for IOM
   NBLOCK =      1;   KBLOCK =      1    inner block; outer block
   IBRION =     -1    ionic relax: 0-MD 1-quasi-New 2-CG
   NFREE  =      0    steps in history (QN), initial steepest desc. (CG)
   ISIF   =      2    stress and relaxation
   IWAVPR =     10    prediction:  0-non 1-charg 2-wave 3-comb
   ISYM   =      2    0-nonsym 1-usesym 2-fastsym
   LCORR  =      T    Harris-Foulkes like correction to forces

   POTIM  = 0.5000    time-step for ionic-motion
   TEIN   =    0.0    initial temperature
   TEBEG  =    0.0;   TEEND  =   0.0 temperature during run
   SMASS  =  -3.00    Nose mass-parameter (am)
   estimated Nose-frequenzy (Omega)   =  0.10E-29 period in steps =****** mass=  -0.144E-27a.u.
   SCALEE = 1.0000    scale energy and forces
   NPACO  =    256;   APACO  = 16.0  distance and # of slots for P.C.
   PSTRESS=    0.0 pullay stress

  Mass of Ions in am
   POMASS =  10.81 14.00
  Ionic Valenz
   ZVAL   =   3.00  5.00
  Atomic Wigner-Seitz radii
  virtual crystal weights
   VCA    =   1.00  1.00
   NELECT =      16.0000    total number of electrons
   NUPDOWN=      -1.0000    fix difference up-down

 DOS related values:
   EMIN   =  10.00;   EMAX   =-10.00  energy-range for DOS
   EFERMI =   0.00
   ISMEAR =     0;   SIGMA  =   0.05  broadening in eV -4-tet -1-fermi 0-gaus

 Electronic relaxation 2 (details)
   IALGO  =     38    algorithm
   LDIAG  =      T    sub-space diagonalisation (order eigenvalues)
   LSUBROT=      F    optimize rotation matrix (better conditioning)
   TURBO    =      0    0=normal 1=particle mesh
   IRESTART =      0    0=no restart 2=restart with 2 vectors
   NREBOOT  =      0    no. of reboots
   NMIN     =      0    reboot dimension
   EREF     =   0.00    reference energy to select bands
   IMIX   =      4    mixing-type and parameters
     AMIX     =   0.40;   BMIX     =  1.00
     AMIX_MAG =   1.60;   BMIX_MAG =  1.00
     AMIN     =   0.10
     WC   =   100.;   INIMIX=   1;  MIXPRE=   1;  MAXMIX= -45

 Intra band minimization:
   WEIMIN = 0.0000     energy-eigenvalue tresh-hold
   EBREAK =  0.13E-05  absolut break condition
   DEPER  =   0.30     relativ break condition

   TIME   =   0.40     timestep for ELM

  volume/ion in A,a.u.               =      10.29        69.42
  Fermi-wavevector in a.u.,A,eV,Ry     =   1.194923  2.258077 19.426956  1.427841
  Thomas-Fermi vector in A             =   2.330901

 Write flags
   LWAVE        =      T    write WAVECAR
   LDOWNSAMPLE  =      F    k-point downsampling of WAVECAR
   LCHARG       =      T    write CHGCAR
   LVTOT        =      F    write LOCPOT, total local potential
   LVHAR        =      F    write LOCPOT, Hartree potential only
   LELF         =      F    write electronic localiz. function (ELF)
   LORBIT       =     11    0 simple, 1 ext, 2 COOP (PROOUT), +10 PAW based schemes

 Dipole corrections
   LMONO  =      F    monopole corrections only (constant potential shift)
[...]
   LINTERFAST=   F  fast interpolation
   KINTER  =     0    interpolate to denser k-point grid
   CSHIFT  =0.1000    complex shift for real part using Kramers Kronig
   OMEGAMAX=  -1.0    maximum frequency
   DEG_THRESHOLD= 0.2000000E-02 threshold for treating states as degnerate
   RTIME   =   -0.100 relaxation time in fs
  (WPLASMAI=    0.000 imaginary part of plasma frequency in eV, 0.658/RTIME)
   DFIELD  = 0.0000000 0.0000000 0.0000000 field for delta impulse in time

 Orbital magnetization related:
   ORBITALMAG=     F  switch on orbital magnetization
   LCHIMAG   =     F  perturbation theory with respect to B field
   DQ        =  0.001000  dq finite difference perturbation B field
   LLRAUG    =     F  two centre corrections for induced B field

 Static calculation
 charge density and potential will be updated during run
 non-spin polarized calculation
 Variant of blocked Davidson
 Davidson routine will perform the subspace rotation
 perform sub-space diagonalisation
    after iterative eigenvector-optimisation
 modified Broyden-mixing scheme, WC =      100.0
 initial mixing is a Kerker type mixing with AMIX =  0.4000 and BMIX =      1.0000
 Hartree-type preconditioning will be used
 using additional bands           12
 reciprocal scheme for non local part
 use partial core corrections
 calculate Harris-corrections to forces
   (improved forces if not selfconsistent)
 use gradient corrections
 use of overlap-Matrix (Vanderbilt PP)
 Gauss-broadening in eV      SIGMA  =   0.05

  energy-cutoff  :      500.00
  volume of cell :       41.15
      direct lattice vectors                 reciprocal lattice vectors
     1.256237318 -2.175866861  0.000000000     0.398013968 -0.229793472  0.000000000
     1.256237318  2.175866861  0.000000000     0.398013968  0.229793472  0.000000000
     0.000000000  0.000000000  7.526459174     0.000000000  0.000000000  0.132864602

  length of vectors
     2.512474636  2.512474636  7.526459174     0.459586943  0.459586943  0.132864602

 k-points in units of 2pi/SCALE and weight: A
   0.00000000  0.00000000  0.00000000       0.004
   0.04975175 -0.02872418  0.00000000       0.023
   0.09950349 -0.05744837  0.00000000       0.023
   0.14925524 -0.08617255  0.00000000       0.023
   0.19900698 -0.11489674  0.00000000       0.012
   0.09950349  0.00000000  0.00000000       0.023
   0.14925524 -0.02872418  0.00000000       0.047
   0.19900698 -0.05744837  0.00000000       0.047
   0.19900698  0.00000000  0.00000000       0.023
   0.24875873 -0.02872418  0.00000000       0.023
   0.00000000  0.00000000  0.03321615       0.008
   0.04975175 -0.02872418  0.03321615       0.047
   0.09950349 -0.05744837  0.03321615       0.047
   0.14925524 -0.08617255  0.03321615       0.047
   0.19900698 -0.11489674  0.03321615       0.023
   0.09950349  0.00000000  0.03321615       0.047
   0.14925524 -0.02872418  0.03321615       0.094
   0.19900698 -0.05744837  0.03321615       0.094
   0.19900698  0.00000000  0.03321615       0.047
   0.24875873 -0.02872418  0.03321615       0.047
   0.00000000  0.00000000  0.06643230       0.004
   0.04975175 -0.02872418  0.06643230       0.023
   0.09950349 -0.05744837  0.06643230       0.023
   0.14925524 -0.08617255  0.06643230       0.023
   0.19900698 -0.11489674  0.06643230       0.012
   0.09950349  0.00000000  0.06643230       0.023
   0.14925524 -0.02872418  0.06643230       0.047
   0.19900698 -0.05744837  0.06643230       0.047
   0.19900698  0.00000000  0.06643230       0.023
   0.24875873 -0.02872418  0.06643230       0.023

 k-points in reciprocal lattice and weights: A
   0.00000000  0.00000000  0.00000000       0.004
   0.12500000  0.00000000  0.00000000       0.023
   0.25000000  0.00000000  0.00000000       0.023
   0.37500000  0.00000000  0.00000000       0.023
   0.50000000  0.00000000  0.00000000       0.012
   0.12500000  0.12500000  0.00000000       0.023
   0.25000000  0.12500000  0.00000000       0.047
   0.37500000  0.12500000  0.00000000       0.047
   0.25000000  0.25000000  0.00000000       0.023
   0.37500000  0.25000000  0.00000000       0.023
   0.00000000  0.00000000  0.25000000       0.008
   0.12500000  0.00000000  0.25000000       0.047
   0.25000000  0.00000000  0.25000000       0.047
   0.37500000  0.00000000  0.25000000       0.047
   0.50000000  0.00000000  0.25000000       0.023
   0.12500000  0.12500000  0.25000000       0.047
   0.25000000  0.12500000  0.25000000       0.094
   0.37500000  0.12500000  0.25000000       0.094
   0.25000000  0.25000000  0.25000000       0.047
   0.37500000  0.25000000  0.25000000       0.047
   0.00000000  0.00000000  0.50000000       0.004
   0.12500000  0.00000000  0.50000000       0.023
   0.25000000  0.00000000  0.50000000       0.023
   0.37500000  0.00000000  0.50000000       0.023
   0.50000000  0.00000000  0.50000000       0.012
   0.12500000  0.12500000  0.50000000       0.023
   0.25000000  0.12500000  0.50000000       0.047
   0.37500000  0.12500000  0.50000000       0.047
   0.25000000  0.25000000  0.50000000       0.023
   0.37500000  0.25000000  0.50000000       0.023

 position of ions in fractional coordinates (direct lattice)
   0.00000000  0.00000000  0.00000000
   0.33333333  0.66666667  0.50000000
   0.33333333  0.66666667  0.00000000
   0.66666667  0.33333333  0.50000000

 position of ions in cartesian coordinates  (Angst):
   0.00000000  0.00000000  0.00000000
   1.25623732  0.72528895  3.76322959
   1.25623732  0.72528895  0.00000000
   1.25623732 -0.72528895  3.76322959

 k-point  1 :   0.0000 0.0000 0.0000  plane waves:    1041
 k-point  2 :   0.1250 0.0000 0.0000  plane waves:    1056
 k-point  3 :   0.2500 0.0000 0.0000  plane waves:    1062
 k-point  4 :   0.3750 0.0000 0.0000  plane waves:    1040
 k-point  5 :   0.5000 0.0000 0.0000  plane waves:    1032
 k-point  6 :   0.1250 0.1250 0.0000  plane waves:    1053
 k-point  7 :   0.2500 0.1250 0.0000  plane waves:    1050
 k-point  8 :   0.3750 0.1250 0.0000  plane waves:    1041
 k-point  9 :   0.2500 0.2500 0.0000  plane waves:    1025
 k-point 10 :   0.3750 0.2500 0.0000  plane waves:    1024
 k-point 11 :   0.0000 0.0000 0.2500  plane waves:    1041
 k-point 12 :   0.1250 0.0000 0.2500  plane waves:    1055
 k-point 13 :   0.2500 0.0000 0.2500  plane waves:    1061
 k-point 14 :   0.3750 0.0000 0.2500  plane waves:    1041
 k-point 15 :   0.5000 0.0000 0.2500  plane waves:    1032
 k-point 16 :   0.1250 0.1250 0.2500  plane waves:    1058
 k-point 17 :   0.2500 0.1250 0.2500  plane waves:    1045
 k-point 18 :   0.3750 0.1250 0.2500  plane waves:    1043
 k-point 19 :   0.2500 0.2500 0.2500  plane waves:    1039
 k-point 20 :   0.3750 0.2500 0.2500  plane waves:    1028
 k-point 21 :   0.0000 0.0000 0.5000  plane waves:    1048
 k-point 22 :   0.1250 0.0000 0.5000  plane waves:    1060
 k-point 23 :   0.2500 0.0000 0.5000  plane waves:    1050
 k-point 24 :   0.3750 0.0000 0.5000  plane waves:    1040
 k-point 25 :   0.5000 0.0000 0.5000  plane waves:    1020
 k-point 26 :   0.1250 0.1250 0.5000  plane waves:    1056
 k-point 27 :   0.2500 0.1250 0.5000  plane waves:    1048
 k-point 28 :   0.3750 0.1250 0.5000  plane waves:    1032
 k-point 29 :   0.2500 0.2500 0.5000  plane waves:    1048
 k-point 30 :   0.3750 0.2500 0.5000  plane waves:    1044

 maximum and minimum number of plane-waves per node :      1062     1020

 maximum number of plane-waves:      1062
 maximum index in each direction:
   IXMAX=    4   IYMAX=    4   IZMAX=   13
   IXMIN=   -5   IYMIN=   -4   IZMIN=  -14

 serial   3D FFT for wavefunctions
 parallel 3D FFT for charge:
    minimum data exchange during FFTs selected (reduces bandwidth)

 Broyden mixing: mesh for mixing (old mesh)
   NGX =  9   NGY =  9   NGZ = 27
  (NGX  = 28   NGY  = 28   NGZ  = 84)
  gives a total of   2187 points

 initial charge density was supplied:
 charge density of overlapping atoms calculated
 number of electron      16.0000000 magnetization
 keeping initial charge density in first step

 Maximum index for augmentation-charges         1246 (set IRDMAX)

 First call to EWALD:  gamma=   0.513
 Maximum number of real-space cells 4x 4x 2
 Maximum number of reciprocal cells 2x 2x 5

--------------------------------------- Iteration      1(   1)  ---------------------------------------

 eigenvalue-minimisations  :  1200
 total energy-change (2. order) : 0.1625971E+02  (-0.9315190E+03)
 number of electron      16.0000000 magnetization
 augmentation part       16.0000000 magnetization

 Free energy of the ion-electron system (eV)
  alpha Z        PSCENC =        34.59384069
  Ewald energy   TEWEN  =      -421.88703305
  -Hartree energ DENC   =      -233.95495413
  -exchange      EXHF   =         0.00000000
  -V(xc)+E(xc)   XCENC  =        53.96755788
  PAW double counting   =       496.86519423     -497.53652252
  entropy T*S    EENTRO =        -0.00213927
  eigenvalues    EBANDS =       -87.19416383
  atomic energy  EATOM  =       671.40793249
  Solvation  Ediel_sol  =         0.00000000
  free energy    TOTEN  =        16.25971250 eV

  energy without entropy =       16.26185177  energy(sigma->0) =       16.26078213

[...]

 eigenvalue-minimisations  :  1940
 total energy-change (2. order) :-0.5468878E+02  (-0.5338776E+02)
 number of electron      16.0000000 magnetization
 augmentation part       16.0000000 magnetization

[...]

 Broyden mixing:
  rms(total) = 0.11223E+01    rms(broyden)= 0.11219E+01
  rms(prec ) = 0.16689E+01
  weight for this iteration     100.00

[...]

 eigenvalues of (default mixing * dielectric matrix)
  average eigenvalue GAMMA=   1.0930
  1.0930

[...]

 eigenvalue-minimisations  :  1680
 total energy-change (2. order) : 0.9220156E-01  (-0.3515160E-01)
 number of electron      15.9999999 magnetization
 augmentation part        0.4701729 magnetization

[...]

 Broyden mixing:
  rms(total) = 0.40650E-02    rms(broyden)= 0.40638E-02
  rms(prec ) = 0.49188E-02
  weight for this iteration     100.00

 eigenvalues of (default mixing * dielectric matrix)
  average eigenvalue GAMMA=   1.7942
  1.0101  1.0101  2.7245  2.1132  2.1132

[...]

--------------------------------------- Iteration      1(  11)  ---------------------------------------

 eigenvalue-minimisations  :  1440
 total energy-change (2. order) :-0.9095600E-04  (-0.1068724E-04)
 number of electron      15.9999999 magnetization
 augmentation part        0.4705129 magnetization

 Free energy of the ion-electron system (eV)
  alpha Z        PSCENC =        34.59384069
  Ewald energy   TEWEN  =      -421.88703305
  -Hartree energ DENC   =      -281.51514812
  -exchange      EXHF   =         0.00000000
  -V(xc)+E(xc)   XCENC  =        56.67666468
  PAW double counting   =      1852.78162074    -1854.24243419
  entropy T*S    EENTRO =        -0.00000000
  eigenvalues    EBANDS =       -93.00971867
  atomic energy  EATOM  =       671.40793249
  Solvation  Ediel_sol  =         0.00000000
  free energy    TOTEN  =       -35.19427543 eV

  energy without entropy =      -35.19427543  energy(sigma->0) =      -35.19427543

 average (electrostatic) potential at core
  the test charge radii are     0.7672  0.7089
  (the norm of the test charge is              1.0000)
       1 -30.0287       2 -29.9993       3 -65.9340       4 -65.8992

 E-fermi :   1.4181     XC(G=0):  -9.2341     alpha+bet : -9.6182

 k-point     1 :       0.0000    0.0000    0.0000
  band No.  band energies     occupation
      1     -16.3670      2.00000
      2     -16.2572      2.00000
      3      -4.4318      2.00000
      4      -3.3251      2.00000
      5      -0.0640      2.00000
      6      -0.0639      2.00000
      7      -0.0322      2.00000
      8      -0.0322      2.00000
      9       5.9536      0.00000
     10      10.1114      0.00000
     11      12.4665      0.00000
     12      12.7940      0.00000
     13      12.7940      0.00000
     14      12.8329      0.00000
     15      12.8329      0.00000
     16      14.0017      0.00000
     17      15.2968      0.00000
     18      16.1744      0.00000
     19      19.5847      0.00000
     20      25.6327      0.00000

[...]

 k-point    30 :       0.3750    0.2500    0.5000
  band No.  band energies     occupation
      1     -12.8129      2.00000
      2     -12.7814      2.00000
      3      -6.8702      2.00000
      4      -6.8415      2.00000
      5      -5.2556      2.00000
      6      -5.2261      2.00000
      7       1.0790      2.00000
      8       1.1121      2.00000
      9       6.0073      0.00000
     10       6.0284      0.00000
     11      13.0992      0.00000
     12      13.5306      0.00000
     13      14.5687      0.00000
     14      15.3325      0.00000
     15      16.0775      0.00000
     16      16.6430      0.00000
     17      17.8649      0.00000
     18      19.0924      0.00000
     19      19.9865      0.00000
     20      21.0557      0.00000

 soft charge-density along one line, spin component           1
         0         1         2         3         4         5         6         7         8         9
 total charge-density along one line

------------------------ aborting loop because EDIFF is reached ----------------------------------------

 total charge

# of ion       s       p       d       tot
    1        0.740   1.413   0.000   2.153
    2        0.740   1.413   0.000   2.153
    3        1.225   2.786   0.000   4.011
    4        1.225   2.787   0.000   4.012
tot          3.930   8.399   0.000  12.329

  FORCE on cell =-STRESS in cart. coord.  units (eV):
  Direction    XX          YY          ZZ          XY          YZ          ZX
  Alpha Z    34.59384    34.59384    34.59384
  Ewald     121.29472   121.29472  -664.47690    -0.00000    -0.00000    -0.00000
  Hartree   223.91723   223.91723  -166.30352     0.00000     0.00000     0.00000
  E(xc)     -63.11182   -63.11182   -64.94214    -0.00000     0.00000     0.00000
  Local    -544.55992  -544.55917   600.44553     0.00000     0.00000    -0.00010
  n-local   -30.86686   -29.30950   -29.94292     0.13204    -0.00437     0.01394
  augment     2.17036     2.17023     2.52473     0.00000     0.00000    -0.00000
  Kinetic   258.43461   253.20008   288.18811     2.22504     0.04445    -0.13848
  Fock        0.00000     0.00000     0.00000     0.00000     0.00000     0.00000
  Total       0.03388     0.03388     0.08673     0.00000    -0.00000     0.00000
  in kB       1.31908     1.31908     3.37704     0.00000    -0.00000     0.00000

 VOLUME and BASIS-vectors are now :
  energy-cutoff  :      500.00
  volume of cell :       41.15
      direct lattice vectors                 reciprocal lattice vectors
     1.256237318 -2.175866861  0.000000000     0.398013968 -0.229793472  0.000000000
     1.256237318  2.175866861  0.000000000     0.398013968  0.229793472  0.000000000
     0.000000000  0.000000000  7.526459174     0.000000000  0.000000000  0.132864602

  length of vectors
     2.512474636  2.512474636  7.526459174     0.459586943  0.459586943  0.132864602

 FORCES acting on ions
    electron-ion (+dipol)            ewald-force                    non-local-force                 convergence-correction
   -.163E-14 -.121E-04 -.252E-14   0.466E-14 -.651E-11 -.139E-13   -.278E-16 0.222E-15 0.000E+00   -.224E-14 -.758E-07 -.575E-14
   -.357E-13 -.159E-04 -.244E-12   0.347E-14 0.130E-10 0.139E-13   0.000E+00 0.000E+00 0.000E+00   0.234E-15 -.776E-07 0.112E-13
   0.275E-12 -.679E-06 -.809E-12   -.352E-14 0.651E-11 -.231E-13   -.347E-17 0.000E+00 0.000E+00   0.201E-13 0.819E-08 -.881E-14
   0.763E-13 -.277E-05 -.359E-11   -.271E-14 -.130E-10 0.231E-13   0.000E+00 -.208E-16 0.000E+00   -.504E-14 0.781E-08 0.263E-13
   0.314E-12 -.315E-04 -.465E-11   0.191E-14 0.202E-14 0.000E+00   -.312E-16 0.201E-15 0.000E+00   0.130E-13 -.137E-06 0.229E-13

 POSITION                                       TOTAL-FORCE (eV/Angst)
      0.00000      0.00000      0.00000         0.000000     -0.000000      0.000000
      1.25624      0.72529      3.76323        -0.000000      0.000000      0.000000
      1.25624      0.72529      0.00000        -0.000000     -0.000000      0.000000
      1.25624     -0.72529      3.76323        -0.000000     -0.000000      0.000000
    total drift:                                0.000000     -0.000032     -0.000000

  FREE ENERGIE OF THE ION-ELECTRON SYSTEM (eV)
  free  energy   TOTEN  =       -35.19427543 eV

  energy  without entropy=      -35.19427543  energy(sigma->0) =      -35.19427543

 writing wavefunctions

 total charge

# of ion       s       p       d       tot
    1        0.740   1.413   0.000   2.153
    2        0.740   1.413   0.000   2.153
    3        1.225   2.786   0.000   4.011
    4        1.225   2.787   0.000   4.012
tot          3.930   8.399   0.000  12.329